c Coffinhead hard-core n=48 seed=27 ratio=4.0
p cnf 48 192
-12 -20 -41 0
6 29 25 0
47 3 -23 0
39 -31 -45 0
16 48 -21 0
41 28 -19 0
16 -14 30 0
24 -28 14 0
-45 -32 -34 0
-2 28 -39 0
-8 48 -21 0
41 -22 -38 0
25 -43 34 0
-38 -24 3 0
-39 -22 45 0
42 -36 -41 0
-12 20 -7 0
38 -5 18 0
19 31 39 0
-3 23 -1 0
-29 45 13 0
17 11 -16 0
-45 -48 -39 0
5 -29 15 0
-27 46 44 0
-47 4 -14 0
32 37 6 0
-17 35 28 0
4 36 22 0
29 24 -6 0
47 27 43 0
-44 -15 -20 0
-45 2 12 0
27 6 31 0
-16 48 32 0
-11 -45 -46 0
-12 35 1 0
-16 -29 -26 0
29 -36 42 0
-24 23 -6 0
26 -30 -10 0
-45 -33 -8 0
5 -11 -7 0
-39 9 -28 0
26 -9 -24 0
22 -11 6 0
-3 -8 -23 0
7 1 -5 0
45 18 15 0
6 -26 23 0
8 34 30 0
14 34 2 0
-5 -9 16 0
40 15 -12 0
7 35 47 0
-33 -12 4 0
48 33 47 0
30 34 15 0
12 -11 -39 0
29 39 -23 0
23 -21 12 0
-14 -7 -5 0
-29 41 -19 0
18 -22 43 0
-19 -1 -35 0
-24 23 -20 0
-29 2 9 0
27 -5 25 0
48 38 -17 0
-27 -23 6 0
-4 20 -32 0
26 -7 3 0
-23 -28 -11 0
-22 -9 48 0
25 -31 35 0
28 9 -34 0
24 -11 -26 0
-16 -35 37 0
-32 -9 -4 0
5 -19 -27 0
35 22 -42 0
7 -16 42 0
41 25 15 0
25 6 -31 0
-8 39 38 0
-13 -48 14 0
45 8 13 0
12 10 -9 0
-39 -4 -36 0
41 -11 14 0
-34 -8 -27 0
12 27 4 0
18 32 46 0
27 31 19 0
-11 42 -5 0
-36 -9 14 0
-33 29 -28 0
-22 -34 16 0
-1 41 -43 0
-23 9 -33 0
36 -8 37 0
10 -14 -45 0
-8 12 -1 0
35 4 -17 0
43 -18 -25 0
32 -38 -3 0
44 37 23 0
18 -7 21 0
-36 -43 -34 0
36 30 19 0
15 10 -7 0
-29 39 -18 0
-28 -40 -16 0
-40 37 18 0
16 -17 10 0
45 48 42 0
17 29 32 0
40 -42 46 0
16 32 -19 0
34 35 -25 0
7 -5 -47 0
22 -27 31 0
18 -36 -12 0
-10 -29 -46 0
22 18 21 0
-44 32 -29 0
42 -40 -33 0
7 3 27 0
19 25 -27 0
-38 3 -17 0
-34 20 18 0
-42 -35 37 0
24 -42 -9 0
9 22 2 0
46 18 13 0
3 -11 21 0
-1 15 -17 0
-41 19 -16 0
-8 6 -25 0
4 6 16 0
-1 33 -45 0
10 -44 -31 0
8 -40 13 0
13 19 -30 0
7 -11 21 0
4 18 14 0
-22 30 39 0
-33 28 -5 0
16 -14 24 0
2 -5 18 0
3 -16 -24 0
-38 44 47 0
2 -14 -44 0
-45 24 17 0
7 -32 -24 0
1 -28 -37 0
-18 20 -1 0
-7 -35 -26 0
5 -29 31 0
-14 -38 11 0
43 -27 9 0
-4 -48 -43 0
-33 -20 -10 0
4 -1 9 0
34 1 -15 0
-17 18 -16 0
-22 -30 -7 0
-7 -45 10 0
16 44 8 0
-37 39 21 0
47 6 -31 0
15 -11 -28 0
19 15 -9 0
-30 -4 46 0
26 30 -29 0
17 -1 25 0
-3 32 -13 0
23 3 -48 0
20 37 -38 0
47 46 -43 0
-36 12 -23 0
12 -26 29 0
13 35 -40 0
-9 22 36 0
48 -20 38 0
-28 7 -27 0
27 -43 -46 0
30 47 -21 0
5 30 32 0
35 -8 47 0
-34 45 15 0
13 43 -35 0
