c Coffinhead hard-core n=48 seed=17 ratio=4.0
p cnf 48 192
18 -10 -33 0
29 -42 17 0
40 18 -21 0
-42 27 -4 0
-7 35 -48 0
-36 -10 -46 0
-31 -23 6 0
-41 26 -37 0
-37 -8 -41 0
-10 9 -7 0
9 23 24 0
3 23 22 0
10 16 39 0
23 29 -36 0
40 28 15 0
-3 46 -24 0
-13 -29 -30 0
46 32 -15 0
43 -6 15 0
35 -4 1 0
-34 40 35 0
-15 -22 3 0
23 40 -12 0
19 -27 12 0
-27 23 29 0
-41 -40 -33 0
-39 -25 29 0
34 36 -28 0
-28 -46 -24 0
-29 -44 33 0
-41 42 47 0
37 -4 36 0
6 -22 -17 0
22 28 35 0
7 -41 -5 0
1 8 -2 0
-14 7 -36 0
38 -8 13 0
-38 9 35 0
-29 28 -11 0
-41 23 -26 0
-19 47 24 0
8 6 -9 0
-15 -36 -26 0
35 -47 44 0
-9 19 28 0
-21 -14 36 0
-38 -35 9 0
37 -19 41 0
-33 -4 -30 0
13 31 -2 0
-17 14 19 0
-6 27 -26 0
7 -11 37 0
-3 7 -21 0
-48 -37 -42 0
42 12 -33 0
12 -44 -40 0
42 44 9 0
-33 -17 45 0
-19 27 -18 0
16 3 -44 0
34 20 -22 0
48 47 -4 0
23 -3 16 0
6 34 42 0
24 16 17 0
44 -1 36 0
-29 27 -34 0
-29 48 -42 0
-13 45 43 0
-11 43 -21 0
20 45 -24 0
24 41 -20 0
-5 31 -15 0
-47 -3 -1 0
-27 13 17 0
-17 -41 -28 0
-8 -31 -5 0
-9 4 -1 0
-1 -39 -29 0
-34 45 37 0
36 46 1 0
-6 -36 2 0
-46 -18 -12 0
-28 -47 -30 0
31 -34 47 0
31 17 18 0
-23 16 14 0
-37 7 14 0
26 14 33 0
36 -31 35 0
-32 31 -42 0
-7 -43 24 0
21 17 39 0
-25 -42 48 0
-9 22 -37 0
-44 39 -36 0
-17 -6 -14 0
39 22 10 0
38 -13 -39 0
31 47 36 0
-46 40 4 0
33 -32 -38 0
-10 4 39 0
45 -42 19 0
-16 1 36 0
42 -4 -17 0
-9 44 -18 0
-2 -35 9 0
24 12 27 0
-33 13 22 0
40 8 18 0
-20 37 30 0
9 7 -38 0
-8 12 37 0
-26 -41 30 0
-16 -40 -32 0
-48 -46 -32 0
-30 -18 -11 0
4 1 32 0
5 -8 -38 0
48 -6 -17 0
1 19 9 0
-7 3 44 0
47 22 -7 0
46 -23 32 0
-47 46 -42 0
20 17 -15 0
-20 21 -35 0
-23 19 46 0
2 -8 -30 0
-36 -13 48 0
-34 -15 32 0
41 27 -13 0
-39 22 -46 0
-22 21 47 0
-34 -1 -9 0
48 -31 -17 0
-20 -19 -37 0
-3 15 -26 0
27 1 47 0
27 7 -18 0
45 11 -48 0
-15 -1 3 0
-25 -39 10 0
-35 -13 -1 0
5 44 8 0
4 38 -28 0
-40 -43 -46 0
23 21 -45 0
39 -17 -48 0
32 -18 9 0
-13 -42 -40 0
17 -25 3 0
-32 18 10 0
-17 38 -6 0
-47 48 31 0
11 4 42 0
22 -21 44 0
20 18 25 0
-20 5 26 0
-20 25 14 0
3 20 -32 0
-25 -2 22 0
12 -13 -27 0
-17 28 -12 0
44 -16 -38 0
-2 -28 9 0
42 -9 -24 0
-43 33 -38 0
-9 -48 -19 0
35 -46 -25 0
-26 -48 37 0
36 -7 -21 0
-13 -5 -7 0
-28 46 10 0
-43 22 -32 0
40 -46 2 0
-24 7 -37 0
7 -42 -33 0
-1 -9 -40 0
-32 -16 5 0
-29 -10 -20 0
-19 45 41 0
33 38 23 0
-22 11 -41 0
32 -29 -48 0
-37 32 48 0
-21 41 3 0
-42 19 -24 0
29 -39 -13 0
