c Coffinhead hard-core n=48 seed=46 ratio=4.0
p cnf 48 192
47 29 -5 0
-36 28 44 0
7 30 6 0
-42 -19 -22 0
-40 23 -19 0
-5 -12 26 0
-18 41 12 0
15 11 5 0
-14 38 -12 0
30 -47 -1 0
3 7 8 0
-46 18 20 0
-8 45 12 0
-21 22 -24 0
-18 -21 -6 0
-5 -33 -4 0
-28 -16 4 0
-24 23 38 0
-41 15 24 0
-28 -17 -26 0
-3 -41 14 0
-44 15 39 0
47 38 40 0
36 22 15 0
41 -35 12 0
-11 -31 43 0
-27 30 7 0
-23 32 -48 0
-47 11 -40 0
11 39 -27 0
4 29 -40 0
41 38 -44 0
30 14 18 0
-33 -23 -14 0
12 40 8 0
-44 33 32 0
-15 -7 -47 0
-24 -33 7 0
-2 -17 7 0
20 -6 34 0
-26 47 -2 0
12 -28 41 0
-5 24 -2 0
24 -30 16 0
6 -3 40 0
24 -22 28 0
-10 -2 -11 0
-3 -37 -7 0
9 -46 4 0
27 -36 31 0
-48 35 46 0
-26 15 19 0
7 -47 -32 0
24 6 -23 0
25 37 -23 0
16 25 5 0
-18 -20 10 0
2 44 -6 0
44 32 -17 0
9 -34 -30 0
-9 39 -11 0
-3 -13 -35 0
-46 24 -20 0
-19 -15 -33 0
13 18 -47 0
-10 26 -48 0
-48 4 -36 0
25 3 20 0
-4 -19 -15 0
-35 -43 2 0
42 19 12 0
-27 -34 39 0
17 36 48 0
32 -2 18 0
13 -7 41 0
-39 -35 -17 0
46 24 18 0
40 45 20 0
9 -14 -3 0
2 -8 46 0
45 -20 -14 0
-13 15 3 0
-35 16 -38 0
-46 -5 -21 0
2 33 24 0
39 6 -21 0
-43 -31 33 0
47 40 -39 0
13 47 24 0
5 13 -35 0
15 43 -40 0
-23 -16 -38 0
-26 -45 3 0
-2 19 -14 0
-10 -31 30 0
-36 17 7 0
23 27 38 0
-5 -13 16 0
-30 21 -11 0
-16 -8 20 0
40 -41 7 0
-21 38 -48 0
-33 3 -8 0
-3 -21 -18 0
44 5 24 0
-11 -27 16 0
5 17 -21 0
14 -12 -37 0
4 5 -39 0
15 -48 11 0
15 38 33 0
16 -7 44 0
-41 3 2 0
35 -18 -21 0
47 -43 -31 0
47 -36 -25 0
7 21 45 0
48 4 -25 0
-17 22 -41 0
-26 24 18 0
-7 -4 45 0
-26 31 8 0
-8 -14 -9 0
-18 -22 -17 0
18 -4 -32 0
10 48 -42 0
-14 -45 7 0
-29 -30 -23 0
31 -24 23 0
-6 -35 9 0
-38 -18 -28 0
40 32 -28 0
44 27 33 0
22 14 -11 0
-48 30 -22 0
29 20 -9 0
-15 -25 -11 0
17 -21 -33 0
2 21 -47 0
-29 3 -25 0
14 43 -24 0
24 -30 44 0
-34 -46 4 0
-35 20 24 0
-28 44 -43 0
-44 -38 15 0
-36 40 -17 0
35 28 -27 0
-32 41 18 0
33 23 39 0
-43 9 -20 0
32 41 -39 0
-47 -33 45 0
35 2 -28 0
38 -39 -3 0
29 35 14 0
-37 -10 41 0
3 43 -22 0
-46 -28 21 0
-27 -11 -8 0
-27 7 -44 0
3 41 22 0
-38 42 26 0
-19 -20 13 0
39 18 24 0
35 26 -39 0
45 -47 43 0
29 18 -21 0
-30 27 48 0
-31 14 34 0
5 1 -16 0
-47 13 16 0
-39 -27 -41 0
3 44 23 0
45 -30 -14 0
-45 -43 47 0
-18 8 5 0
-7 35 45 0
-17 43 41 0
-30 14 2 0
21 37 38 0
-38 -30 6 0
32 -38 31 0
-19 12 -42 0
5 -32 3 0
22 48 9 0
27 30 28 0
-33 28 -48 0
-35 -20 -32 0
-8 30 -9 0
-38 23 -40 0
23 11 21 0
