c Coffinhead hard-core n=48 seed=45 ratio=4.0
p cnf 48 192
46 38 -33 0
-3 -12 -11 0
-32 28 34 0
15 -1 -23 0
37 5 -10 0
-33 -15 -6 0
-42 47 -28 0
9 -37 -44 0
-25 38 27 0
18 -25 -2 0
26 -46 15 0
1 40 -44 0
-40 -4 5 0
-9 14 -5 0
31 -20 -23 0
33 -14 45 0
19 -35 34 0
29 -30 32 0
-37 1 27 0
-2 9 45 0
35 22 20 0
46 -39 33 0
25 -20 18 0
-30 -6 8 0
-28 -2 5 0
-34 -42 -1 0
27 26 -45 0
32 23 13 0
32 -26 29 0
19 40 7 0
40 14 -9 0
-42 -31 -2 0
9 -27 -32 0
-23 -18 -38 0
30 26 31 0
-28 -4 7 0
-36 -8 28 0
44 -21 23 0
-32 -36 46 0
-7 -33 -45 0
-24 43 34 0
-37 10 -34 0
44 4 39 0
7 13 -2 0
7 -28 -40 0
27 12 42 0
-28 1 24 0
17 -7 -40 0
-42 39 9 0
41 42 -18 0
23 -4 43 0
22 34 43 0
-10 12 40 0
-15 -30 -13 0
9 27 -7 0
34 5 -31 0
20 -48 31 0
-39 4 -3 0
48 -47 -14 0
11 -12 23 0
46 -27 45 0
-15 33 -38 0
-19 -44 -3 0
-18 -38 43 0
12 -26 -40 0
43 1 44 0
43 -18 -29 0
-9 18 -8 0
-9 25 10 0
7 34 45 0
34 25 -48 0
48 -25 -27 0
-31 17 15 0
7 -1 47 0
-10 21 18 0
38 -12 -10 0
6 -36 -24 0
-4 -8 16 0
-3 -16 12 0
-17 -36 -35 0
-43 -15 46 0
-38 -12 -6 0
26 -48 35 0
44 -22 -1 0
-40 46 -6 0
38 47 20 0
11 20 7 0
6 35 -7 0
-34 -5 -1 0
-15 48 -36 0
36 37 -44 0
-16 -24 43 0
-2 -34 30 0
-11 23 -7 0
-35 18 -27 0
3 -18 -46 0
-40 28 22 0
25 42 -15 0
-25 -42 -34 0
24 -5 -16 0
-17 23 -9 0
-31 -24 -13 0
-40 -8 15 0
-16 -29 20 0
-42 -39 -34 0
-37 39 43 0
42 11 35 0
-22 -37 -6 0
38 -43 9 0
-20 -39 21 0
16 15 -34 0
-47 37 -13 0
-18 -44 -41 0
40 -21 -41 0
-12 14 11 0
28 -6 34 0
-9 31 42 0
35 -27 -10 0
2 -29 -44 0
20 36 1 0
-5 -40 -32 0
-37 27 26 0
-28 -14 -45 0
-13 -18 -47 0
-45 40 22 0
45 -22 2 0
-27 -36 28 0
2 36 24 0
37 -2 10 0
-4 48 2 0
45 -42 -10 0
12 21 -23 0
-12 15 45 0
-29 -17 -6 0
-22 -42 30 0
-4 27 -17 0
19 -16 -46 0
1 -43 -20 0
31 -46 14 0
-1 42 44 0
-41 -4 29 0
14 48 -38 0
-1 -38 -6 0
-35 13 33 0
2 28 -30 0
-7 38 17 0
-15 -11 -13 0
12 -22 -47 0
39 -30 26 0
33 -26 -40 0
-20 14 9 0
47 15 -38 0
-9 15 -33 0
-21 -17 8 0
17 11 41 0
3 -5 14 0
5 45 -8 0
3 -38 -30 0
18 22 46 0
-39 -14 -23 0
-9 22 48 0
29 -38 39 0
-20 -40 22 0
-35 -9 32 0
19 -28 36 0
-3 29 -1 0
2 -43 28 0
-1 34 14 0
42 41 -11 0
-37 40 -31 0
-37 13 15 0
-45 48 -32 0
34 42 -5 0
36 -13 28 0
-42 9 32 0
-45 -33 -42 0
2 -5 -23 0
-5 -13 3 0
-27 -21 4 0
-35 48 -2 0
-8 -47 -23 0
4 -38 26 0
-31 4 -11 0
32 -30 6 0
-21 -25 32 0
18 17 7 0
39 -17 -32 0
32 46 -27 0
-20 21 -23 0
-10 -2 -8 0
22 27 -12 0
-36 24 29 0
