c Coffinhead hard-core n=48 seed=2 ratio=4.0
p cnf 48 192
19 -35 20 0
-41 22 -45 0
-42 30 -22 0
-19 -36 -45 0
45 -35 -11 0
-9 48 -11 0
28 29 -5 0
-22 -27 -7 0
-24 -43 12 0
-28 -24 3 0
-12 39 -2 0
12 -34 -14 0
-5 -23 24 0
-22 33 41 0
2 25 47 0
17 -3 -31 0
13 -28 -3 0
29 -36 -15 0
-2 33 17 0
-4 34 2 0
26 16 22 0
-8 -10 44 0
-22 17 -35 0
-33 -39 -29 0
-2 -39 -22 0
-23 -22 13 0
25 23 41 0
-44 -34 -5 0
-46 19 -18 0
-21 42 35 0
9 -48 -18 0
-20 -4 45 0
29 -1 16 0
26 27 -39 0
2 44 -15 0
34 44 -38 0
6 -36 40 0
-1 -39 -4 0
-32 12 -44 0
-35 -12 -14 0
-1 46 -42 0
44 45 -6 0
40 5 -43 0
30 27 25 0
-18 37 19 0
-45 -42 -47 0
21 25 -44 0
-44 6 2 0
26 -32 -34 0
29 -33 18 0
18 34 -11 0
31 -24 -34 0
-21 1 34 0
-2 18 -20 0
22 -2 5 0
-29 -23 20 0
48 40 3 0
31 -15 -24 0
-29 -25 -36 0
-29 45 39 0
45 -38 42 0
-39 -6 -25 0
-43 46 -8 0
29 -11 -26 0
29 18 -43 0
13 -16 -37 0
-38 12 -4 0
14 -10 18 0
17 21 6 0
10 41 35 0
20 48 -33 0
2 43 23 0
-18 -35 -10 0
-29 -41 -5 0
-15 -33 -32 0
9 13 -42 0
24 -38 -1 0
-29 32 33 0
33 31 -46 0
36 10 -30 0
-15 34 -24 0
45 -35 -37 0
-31 -16 9 0
27 42 -19 0
-3 -10 -36 0
-21 -10 11 0
-3 47 17 0
10 29 30 0
-32 -15 38 0
37 2 44 0
43 -13 11 0
5 -20 -1 0
-13 29 7 0
-10 42 -7 0
-5 -10 32 0
-16 37 21 0
29 -19 -23 0
33 12 4 0
-8 -43 -31 0
2 40 -33 0
27 -18 11 0
-41 -43 -14 0
-6 -33 -20 0
-24 -5 -46 0
37 18 -20 0
48 -35 47 0
-35 39 3 0
-2 5 7 0
-15 -30 -20 0
17 -25 9 0
38 -31 -7 0
27 -30 12 0
-43 23 -21 0
37 -13 -16 0
26 40 -6 0
7 -27 -8 0
21 20 27 0
-35 44 2 0
-21 -43 -34 0
45 18 20 0
-45 28 5 0
-1 45 48 0
-26 -37 15 0
-11 21 12 0
18 27 45 0
2 -19 26 0
-25 34 -23 0
-20 -41 -9 0
-5 30 -38 0
-16 -5 -3 0
19 -1 -45 0
-19 -27 -28 0
24 -10 -17 0
-16 31 12 0
12 2 14 0
18 13 3 0
-24 -39 9 0
-48 -9 21 0
-2 -6 41 0
-31 -8 -14 0
41 -2 43 0
-5 39 42 0
-28 -3 27 0
12 -27 -2 0
-24 25 9 0
-7 46 13 0
-33 7 -3 0
-43 16 4 0
4 6 37 0
36 -32 39 0
38 46 -33 0
-38 -45 -13 0
-23 29 -36 0
20 40 -5 0
-34 42 44 0
12 -33 -6 0
35 -31 -5 0
-9 -1 -32 0
35 -28 29 0
-25 15 -47 0
8 -10 -48 0
-34 23 -46 0
21 -27 -44 0
-21 -31 4 0
35 18 -31 0
-9 -8 -17 0
17 35 -24 0
-24 -36 38 0
10 -25 -5 0
-19 7 26 0
35 13 17 0
-35 -32 9 0
27 32 -38 0
-25 23 37 0
2 9 -34 0
12 -10 -5 0
-12 -38 5 0
-22 12 24 0
-38 29 6 0
7 -15 -42 0
46 -9 -1 0
8 7 -26 0
-10 34 22 0
-10 19 48 0
-7 28 -38 0
-17 -46 -15 0
-9 46 25 0
23 -40 -45 0
-11 26 10 0
-8 47 15 0
26 -33 -1 0
-31 3 -12 0
