c Coffinhead hard-core n=48 seed=8 ratio=4.0
p cnf 48 192
-25 -41 43 0
-47 -10 -22 0
22 24 46 0
10 -15 -48 0
2 -19 -12 0
40 -3 -25 0
-6 -41 -26 0
-34 33 44 0
25 -21 38 0
36 14 -47 0
-27 -8 -15 0
1 -17 -13 0
-14 42 22 0
-35 22 33 0
-15 26 -44 0
47 32 -48 0
-18 -9 13 0
-28 -7 43 0
-37 -36 6 0
45 44 18 0
-21 48 -45 0
-27 17 -1 0
27 34 -31 0
-17 -37 6 0
30 -13 10 0
-36 27 8 0
26 -37 -5 0
29 -10 -30 0
-47 21 -34 0
3 -13 30 0
9 -30 6 0
37 -26 1 0
-6 -34 -3 0
-21 47 -15 0
-12 -9 16 0
-3 -7 29 0
-3 -11 1 0
-35 23 -5 0
-11 -23 5 0
-12 30 -14 0
24 -44 -27 0
-12 -36 2 0
1 -16 37 0
-25 33 43 0
-25 8 15 0
-34 40 -24 0
2 47 31 0
40 11 13 0
-38 9 -25 0
-2 28 11 0
47 -46 45 0
-41 25 16 0
31 37 10 0
37 11 -25 0
42 29 -11 0
39 -20 26 0
-17 46 4 0
-20 5 47 0
46 -11 -14 0
-14 30 -39 0
46 -9 23 0
-7 -6 34 0
-35 -45 -47 0
44 39 7 0
10 -7 24 0
12 42 8 0
-1 -21 -7 0
8 45 19 0
23 12 -26 0
41 20 -45 0
-28 20 29 0
48 -18 43 0
28 -10 -44 0
-38 -10 -28 0
-36 39 10 0
-18 44 41 0
13 34 -7 0
-36 30 1 0
-11 -42 -47 0
39 -6 48 0
-15 38 -32 0
20 13 33 0
-48 -17 46 0
-12 1 41 0
-12 37 48 0
-13 -23 39 0
6 -23 37 0
48 8 15 0
-2 23 37 0
19 46 -17 0
1 38 31 0
46 21 -10 0
29 39 48 0
36 -15 17 0
-21 12 -42 0
-19 13 24 0
-48 16 -17 0
12 -13 34 0
11 1 42 0
44 45 28 0
6 -36 44 0
3 29 37 0
28 18 16 0
-18 -1 5 0
29 33 -37 0
15 -32 -5 0
43 -8 16 0
-6 -18 31 0
-17 -24 -19 0
-30 -14 16 0
2 -12 13 0
-14 -10 5 0
-34 -7 11 0
39 -35 40 0
-19 16 30 0
33 -19 -23 0
-14 -7 -34 0
19 -9 -12 0
32 -41 11 0
-19 29 -22 0
43 6 -32 0
-21 -30 -20 0
-39 19 -35 0
28 33 -47 0
20 -45 -35 0
12 -31 -4 0
21 18 19 0
32 -20 17 0
-35 -42 -13 0
-6 -26 -25 0
-31 -36 33 0
3 34 30 0
37 27 2 0
-15 -12 -1 0
-19 -22 -39 0
19 1 43 0
-6 33 44 0
47 -31 -46 0
-1 -21 18 0
7 -18 25 0
27 38 21 0
39 17 -5 0
-12 -40 10 0
32 -38 -9 0
-18 40 -38 0
1 -5 -13 0
-27 4 -29 0
-13 15 39 0
2 25 -4 0
4 -38 24 0
2 8 48 0
12 -30 -31 0
-29 -22 1 0
17 15 45 0
35 -29 -2 0
25 -36 -31 0
-2 18 48 0
4 33 -26 0
-12 -15 -41 0
43 -12 19 0
17 -27 -28 0
-33 46 7 0
18 -21 -42 0
22 -39 -21 0
-11 -33 10 0
40 -21 -10 0
-9 13 31 0
38 -6 34 0
-26 -29 -27 0
37 15 -13 0
-22 -48 -46 0
-18 39 47 0
34 12 -28 0
41 27 29 0
-37 14 26 0
19 -5 47 0
-33 21 -46 0
10 -22 -6 0
10 37 24 0
-36 13 31 0
3 31 -34 0
-34 -15 -46 0
9 23 -14 0
21 4 31 0
-27 -25 -21 0
-46 -36 -16 0
-14 45 -8 0
-5 25 2 0
38 -44 46 0
43 -32 -38 0
-44 -16 13 0
33 26 -12 0
