c Coffinhead hard-core n=48 seed=54 ratio=4.0
p cnf 48 192
23 39 -9 0
24 -10 18 0
34 37 -6 0
-15 -35 11 0
33 7 -5 0
30 20 -31 0
12 -44 48 0
47 -27 -16 0
-25 28 -44 0
14 18 -37 0
-40 -36 -18 0
-19 -16 45 0
12 27 17 0
-33 -48 -20 0
-30 -29 8 0
-3 -45 24 0
4 40 -26 0
-26 -15 39 0
-31 -29 -20 0
-15 29 36 0
35 23 -11 0
42 -32 -30 0
-37 28 -23 0
17 20 22 0
23 -13 16 0
33 10 -28 0
-35 18 43 0
-30 -24 -21 0
26 13 -35 0
6 -19 37 0
12 -7 25 0
2 -15 -45 0
39 30 -36 0
-7 -30 -48 0
-15 -31 -24 0
-32 20 -33 0
-19 2 37 0
26 -39 -34 0
19 -10 46 0
12 -27 -48 0
25 -13 40 0
5 46 -9 0
30 -33 -38 0
-32 40 14 0
19 -32 46 0
-31 36 47 0
35 40 -18 0
48 -29 31 0
35 1 -7 0
-46 33 40 0
-34 19 -8 0
-41 -17 -28 0
-46 36 -25 0
10 4 -40 0
-31 -41 23 0
31 -23 48 0
-10 11 -8 0
3 -46 -37 0
-30 -31 39 0
-23 21 -36 0
38 -47 31 0
23 -33 6 0
-7 39 -18 0
-7 -4 -45 0
9 36 31 0
21 -26 -27 0
-36 1 21 0
19 6 32 0
24 -30 26 0
45 40 -42 0
19 -12 29 0
-4 -42 -15 0
-10 -5 33 0
-37 -5 -25 0
-31 12 40 0
-19 -7 38 0
-31 9 18 0
44 37 18 0
6 35 -47 0
-7 -33 -17 0
47 -16 31 0
-43 8 -22 0
-4 37 -40 0
-18 28 9 0
18 -20 5 0
-25 -20 34 0
43 -18 -42 0
-42 48 -10 0
-19 -4 -14 0
-40 -42 -47 0
38 27 -32 0
40 38 33 0
11 -33 23 0
46 44 45 0
7 28 20 0
39 -3 -38 0
27 44 -26 0
36 13 -48 0
24 -26 28 0
-20 7 19 0
-45 31 -20 0
-23 -30 -34 0
-28 -33 -6 0
-32 47 -1 0
-26 13 -33 0
-45 -10 16 0
28 -2 -7 0
4 22 -20 0
-34 -26 19 0
-3 38 -10 0
-46 -1 48 0
-44 19 -47 0
35 20 3 0
-36 -37 -32 0
-14 25 -9 0
-2 -38 9 0
15 -38 39 0
23 4 -36 0
5 -26 -36 0
16 29 32 0
19 -17 -43 0
-13 -23 46 0
-37 10 -32 0
2 -42 -9 0
4 -45 5 0
-32 42 17 0
5 -8 43 0
12 -48 38 0
-28 -27 -4 0
33 17 44 0
26 46 -28 0
25 -45 19 0
35 19 -15 0
-25 27 15 0
45 -7 -43 0
42 -30 3 0
-33 -46 4 0
-39 -34 -16 0
8 -37 -39 0
-31 33 -8 0
17 -13 2 0
-39 -31 -45 0
-2 -15 -20 0
-43 -45 18 0
33 -11 -2 0
35 27 28 0
15 26 5 0
19 -10 -40 0
-14 -5 -7 0
-20 11 -36 0
32 -17 47 0
-46 15 -10 0
43 46 7 0
25 28 -33 0
-33 47 38 0
-31 -19 37 0
-1 32 8 0
-20 -44 -16 0
32 5 -21 0
11 19 -33 0
3 45 39 0
15 -43 -20 0
-22 -14 23 0
9 35 17 0
7 47 -4 0
3 -17 11 0
-37 44 -25 0
38 34 -18 0
25 18 -2 0
17 -1 9 0
28 36 -26 0
32 -31 44 0
-37 -45 10 0
39 1 -38 0
-15 39 8 0
19 -37 -48 0
27 -23 6 0
-1 11 22 0
-8 -46 14 0
14 -48 -6 0
-45 -8 -30 0
26 -38 -29 0
-33 46 -25 0
1 33 15 0
18 -48 13 0
11 -47 34 0
-36 -39 21 0
45 41 -25 0
-25 18 -44 0
-20 -17 12 0
8 47 -3 0
-3 18 8 0
