c Coffinhead hard-core n=48 seed=29 ratio=4.0
p cnf 48 192
30 -6 -16 0
-6 -9 -10 0
21 -13 39 0
-25 26 45 0
23 8 -38 0
-30 4 36 0
44 16 33 0
30 32 18 0
-10 11 -4 0
41 23 -38 0
4 -23 -10 0
4 -48 -31 0
8 24 45 0
-23 -35 7 0
15 34 42 0
-45 -4 21 0
-16 -1 -43 0
6 -39 -17 0
-38 -24 40 0
-47 3 -40 0
-48 -3 -46 0
-13 -15 -43 0
30 -38 31 0
-34 -46 14 0
-15 16 38 0
41 -30 -31 0
-3 45 47 0
-28 29 2 0
-20 -32 3 0
39 -41 -38 0
17 8 31 0
-23 -44 -25 0
46 -3 -33 0
22 -29 1 0
37 -26 10 0
42 21 23 0
1 -48 18 0
-48 -22 -43 0
-6 -41 7 0
-12 14 35 0
-31 43 -42 0
48 28 2 0
-4 20 -21 0
25 -37 -14 0
35 45 2 0
36 -9 -34 0
16 15 12 0
-2 9 -29 0
-41 -4 16 0
9 -31 10 0
20 -19 25 0
-5 -25 -36 0
-25 32 -22 0
-16 39 19 0
-30 40 -14 0
-9 32 -37 0
23 31 18 0
10 -1 -6 0
24 -10 -25 0
13 -39 15 0
-26 -30 22 0
19 27 -10 0
-15 37 -25 0
-40 13 -37 0
-41 -32 11 0
31 -30 -24 0
-7 -18 31 0
22 -20 -1 0
4 40 -26 0
-34 -17 -23 0
-33 -16 -2 0
-34 35 -24 0
-17 -23 -34 0
26 -6 29 0
41 45 -31 0
2 21 34 0
-36 -23 12 0
11 -30 36 0
-12 1 16 0
35 9 -46 0
-45 34 -48 0
44 18 -19 0
-9 48 23 0
26 13 12 0
-19 -31 17 0
44 -40 26 0
-32 31 20 0
38 -5 -29 0
-12 -29 43 0
-36 13 31 0
34 3 40 0
19 4 16 0
-18 -20 13 0
-15 -4 -7 0
1 -25 32 0
43 -21 26 0
-10 -33 43 0
-39 33 -43 0
7 -29 10 0
13 -22 41 0
14 -5 6 0
2 -16 -10 0
-12 -20 24 0
-42 39 25 0
-22 -41 -14 0
38 -46 27 0
-24 27 32 0
-43 31 13 0
22 -35 -45 0
16 -6 -15 0
23 44 -22 0
10 18 47 0
-27 36 -11 0
-40 -5 -44 0
19 10 28 0
20 -8 -48 0
39 -37 -7 0
-8 17 -42 0
39 6 31 0
38 21 -4 0
-34 18 -39 0
22 -9 46 0
-37 -4 2 0
-10 30 -32 0
19 -4 -44 0
-31 1 -14 0
28 -35 -33 0
-6 -18 -47 0
13 -3 -24 0
14 -40 18 0
-20 16 26 0
-8 -29 28 0
-37 -32 -47 0
-33 24 9 0
-29 -25 40 0
23 -35 -28 0
-4 -18 11 0
48 30 -29 0
1 32 -34 0
30 27 41 0
42 -25 45 0
-5 -42 -37 0
13 -45 -5 0
23 -47 27 0
18 -37 24 0
44 -35 30 0
28 -24 26 0
19 -38 14 0
-19 -45 44 0
13 28 22 0
-17 -42 -11 0
17 42 -11 0
-44 -18 -48 0
11 30 -2 0
45 18 48 0
-39 7 -36 0
-11 28 14 0
46 -16 -9 0
-23 10 -8 0
-39 36 26 0
-34 -9 15 0
45 24 46 0
-2 34 15 0
-19 -29 36 0
-27 4 -8 0
37 -8 12 0
-1 -8 -41 0
-44 13 -31 0
-8 -1 31 0
-27 -13 28 0
-39 36 5 0
-47 19 -28 0
-11 2 -33 0
32 -9 7 0
-20 6 18 0
-44 32 11 0
3 -25 46 0
31 -27 34 0
42 -20 -46 0
22 15 -31 0
-3 -30 -24 0
-7 24 -12 0
-1 -20 -11 0
44 -8 -13 0
-34 24 -20 0
35 40 -8 0
42 -1 -48 0
-30 46 -31 0
32 -18 -13 0
32 48 -43 0
27 34 14 0
35 -31 34 0
