c Coffinhead hard-core n=48 seed=19 ratio=4.0
p cnf 48 192
-36 -12 35 0
28 6 30 0
-28 -22 12 0
-16 -17 -20 0
-15 14 -16 0
-32 10 -27 0
43 -22 21 0
7 12 -23 0
5 -28 21 0
35 -39 -41 0
-46 41 -27 0
-25 -6 -42 0
6 4 -37 0
-24 3 -31 0
-27 2 -40 0
13 -40 -27 0
28 11 31 0
-3 -28 23 0
14 -20 47 0
-14 18 -41 0
-20 17 27 0
-27 -16 39 0
15 -2 -19 0
-26 31 -34 0
-16 -12 -33 0
-15 -3 45 0
31 -10 5 0
1 4 14 0
-39 18 -33 0
-46 43 28 0
48 -21 -37 0
15 -47 -44 0
2 42 -24 0
-2 -16 3 0
45 -17 14 0
-45 1 -32 0
-18 -19 16 0
-38 45 -7 0
24 -10 27 0
28 3 -31 0
-24 10 9 0
21 -3 -42 0
-17 -14 -1 0
24 2 34 0
32 42 37 0
30 -3 1 0
-35 -2 -18 0
12 -30 -6 0
28 24 -18 0
32 -30 -46 0
-48 33 -2 0
10 15 -16 0
26 7 23 0
-4 13 -20 0
29 20 21 0
3 17 -7 0
17 -20 -46 0
-9 41 25 0
38 -2 -37 0
-45 7 26 0
45 33 -14 0
-22 25 41 0
20 -19 42 0
28 10 -32 0
4 -40 36 0
-46 5 40 0
17 25 39 0
7 40 47 0
25 -28 34 0
-48 -30 17 0
16 41 -32 0
46 28 -39 0
-31 6 28 0
-48 36 -47 0
-5 -22 -2 0
21 11 -30 0
38 -23 -28 0
-33 -20 -43 0
1 9 -20 0
-22 11 -36 0
-27 30 36 0
5 -16 2 0
48 -9 -12 0
-35 -47 -21 0
33 19 6 0
-42 13 -24 0
-26 -3 12 0
20 -19 10 0
-30 33 -28 0
16 -14 -33 0
-35 10 22 0
30 39 45 0
-3 34 9 0
-37 -26 24 0
1 -28 -18 0
32 -14 -41 0
-1 20 -25 0
-31 20 -9 0
-2 -48 8 0
14 32 -5 0
28 -7 -37 0
-32 -44 34 0
41 29 -43 0
48 20 4 0
37 -23 2 0
-13 -2 -27 0
-7 -2 20 0
-42 37 -24 0
-27 -20 11 0
-24 -22 -28 0
48 -2 -16 0
-31 11 -32 0
43 -13 44 0
22 1 -26 0
5 26 45 0
17 31 -35 0
-4 -32 -26 0
45 46 -30 0
21 13 -12 0
-24 -33 7 0
-35 -20 36 0
-48 4 -22 0
-36 43 -26 0
10 17 4 0
-15 -40 -1 0
12 39 18 0
37 33 23 0
7 43 2 0
32 19 -45 0
4 -46 32 0
-35 -25 22 0
27 10 17 0
13 35 -41 0
-13 39 19 0
-47 22 20 0
42 -33 3 0
-37 44 -42 0
-8 -43 48 0
16 -19 38 0
14 -15 -48 0
35 -33 -42 0
-30 41 14 0
5 -32 13 0
47 29 38 0
38 -11 4 0
-32 31 -34 0
-21 18 45 0
37 -30 8 0
28 -36 13 0
7 44 -39 0
-10 -24 -19 0
-2 8 -9 0
-6 -42 21 0
-43 -46 23 0
-29 32 34 0
4 -48 -13 0
25 36 -2 0
-21 44 -28 0
-8 36 39 0
-24 -48 -8 0
12 -16 23 0
37 30 7 0
-35 -15 1 0
-39 10 -5 0
-45 -48 -23 0
-42 46 -37 0
-41 13 -12 0
-44 14 -19 0
-23 -25 -30 0
-1 15 -37 0
-19 -17 -8 0
6 -30 -36 0
-40 -31 20 0
-22 38 34 0
-12 -4 14 0
13 -40 33 0
21 14 -34 0
1 12 3 0
7 -39 -35 0
-27 18 -17 0
-40 -10 30 0
-17 -8 9 0
-42 24 30 0
46 45 -27 0
1 -36 47 0
-28 33 7 0
-25 21 -33 0
-35 21 10 0
-36 9 40 0
25 44 43 0
-13 -8 -17 0
31 -21 -43 0
