c Coffinhead hard-core n=48 seed=52 ratio=4.0
p cnf 48 192
-37 5 11 0
33 -12 32 0
-30 -42 -17 0
-13 -2 23 0
-13 37 -15 0
6 -13 -21 0
-33 8 12 0
28 -33 -42 0
-32 34 1 0
7 23 -28 0
45 -24 35 0
-2 35 36 0
-38 40 45 0
5 24 -8 0
-18 4 -13 0
-32 21 16 0
-23 2 -8 0
5 -33 -31 0
-17 -8 9 0
11 -46 -34 0
29 37 17 0
-7 44 25 0
-35 17 -39 0
5 26 -40 0
45 9 2 0
-7 2 -39 0
-30 9 -16 0
38 -28 11 0
22 -4 -3 0
-10 -36 -24 0
-27 -14 17 0
-1 43 41 0
16 -19 44 0
-33 27 18 0
18 11 -46 0
-40 -27 48 0
28 43 40 0
-24 27 17 0
-14 -15 -41 0
-6 -11 31 0
-46 -7 37 0
-4 -31 -14 0
34 18 28 0
-13 39 -25 0
-11 -31 -26 0
29 32 40 0
29 -36 42 0
5 -8 -28 0
-20 -26 -10 0
-13 -29 40 0
17 -4 7 0
-42 -37 17 0
4 48 -11 0
-7 -5 12 0
4 47 -42 0
47 -40 12 0
14 -38 45 0
34 -41 -4 0
48 -37 7 0
17 23 -36 0
23 -10 -6 0
-5 -46 -36 0
-35 13 10 0
44 -34 -30 0
-23 16 -38 0
30 -32 48 0
-10 48 23 0
-34 -7 -46 0
45 48 27 0
-21 43 -24 0
-1 26 33 0
-31 -4 28 0
26 -5 16 0
-27 -41 -31 0
41 38 8 0
-25 -36 -29 0
33 -30 14 0
48 -11 29 0
47 16 28 0
17 16 32 0
25 36 -26 0
-9 11 -18 0
-20 -15 -14 0
-47 37 -18 0
3 -24 14 0
26 27 -7 0
-34 35 11 0
20 -10 21 0
42 -8 21 0
-5 26 30 0
-34 -1 25 0
33 19 39 0
-20 -14 -25 0
27 -20 -3 0
41 3 10 0
20 34 -40 0
-13 29 27 0
40 -48 2 0
-47 -37 -28 0
13 -10 9 0
-4 12 31 0
26 -24 40 0
-42 -18 -30 0
-17 -32 46 0
-40 -46 34 0
5 30 -27 0
-17 42 32 0
-5 -22 -24 0
-35 38 16 0
29 -48 7 0
42 -38 41 0
-43 -22 37 0
5 16 -41 0
41 6 8 0
33 -36 -3 0
-18 32 -28 0
-17 -3 15 0
17 46 48 0
-20 41 8 0
25 38 32 0
-29 5 -46 0
34 1 -45 0
-21 13 4 0
35 5 47 0
-11 -38 13 0
-6 11 -48 0
-47 8 3 0
7 41 -44 0
23 12 -13 0
-43 22 38 0
46 14 22 0
9 -5 -6 0
-21 24 36 0
37 35 -9 0
22 -1 -40 0
14 28 -21 0
29 -31 19 0
-27 38 15 0
-31 -8 -20 0
-38 -36 23 0
-1 8 -43 0
-41 -46 -28 0
-3 25 40 0
26 -1 29 0
36 -24 -45 0
44 -38 4 0
-14 22 15 0
-47 2 -13 0
-24 48 -30 0
-34 22 36 0
-29 26 19 0
-7 19 2 0
10 -22 32 0
-29 24 6 0
-25 -29 -20 0
13 -1 -23 0
40 -2 -45 0
-27 39 12 0
-10 -24 28 0
46 -10 -5 0
42 47 -28 0
-39 -2 -11 0
-11 -15 33 0
-10 -7 -45 0
27 7 -41 0
6 -10 -35 0
9 37 -39 0
-42 36 11 0
-29 -32 -30 0
36 35 6 0
-7 -30 42 0
5 31 25 0
8 44 17 0
-43 12 -16 0
-2 -42 39 0
26 -14 -35 0
32 15 11 0
5 14 15 0
13 23 -35 0
-25 39 -30 0
39 1 -9 0
31 44 15 0
-23 1 34 0
39 -7 45 0
14 -8 1 0
15 -18 42 0
-44 36 11 0
8 29 -6 0
-41 9 -24 0
-33 -45 -7 0
-26 -35 44 0
-45 -1 -46 0
