c Coffinhead hard-core n=48 seed=59 ratio=4.0
p cnf 48 192
-28 -36 19 0
48 26 32 0
-21 -17 33 0
-23 30 -8 0
34 24 -14 0
19 -24 -32 0
-2 -42 3 0
-48 21 -47 0
-45 29 31 0
-4 35 21 0
-28 -33 -16 0
36 38 22 0
-41 -3 32 0
33 43 -4 0
-23 -25 -47 0
-42 46 -35 0
-42 -8 19 0
-37 25 -21 0
-33 31 18 0
11 -13 33 0
43 4 20 0
-26 38 -3 0
7 23 -30 0
-8 -16 24 0
-5 7 -27 0
48 19 2 0
43 4 23 0
34 -7 -26 0
39 5 40 0
24 28 11 0
10 -14 -36 0
-41 9 -1 0
-29 -24 -36 0
-27 -25 24 0
42 -7 34 0
30 -1 4 0
-4 46 2 0
-33 29 24 0
-20 33 -26 0
-6 -27 19 0
-21 -17 5 0
33 -31 -48 0
3 10 -48 0
-37 -48 46 0
46 7 2 0
11 -29 -34 0
40 23 45 0
-9 -10 -6 0
-12 -18 -41 0
10 1 39 0
-6 30 -20 0
-26 -18 33 0
12 45 -6 0
24 -12 -23 0
-39 27 47 0
-43 31 -41 0
9 -12 37 0
-16 14 31 0
41 25 -1 0
-21 -47 -39 0
-32 48 12 0
-40 4 -34 0
27 -40 -24 0
8 -32 45 0
32 -14 -18 0
42 27 -40 0
3 -8 -9 0
-23 -21 -40 0
-42 -16 48 0
-34 8 -4 0
15 29 38 0
7 -6 -19 0
30 27 26 0
22 43 4 0
39 -42 27 0
-39 -33 -27 0
-40 20 -39 0
29 45 25 0
15 -28 -17 0
-12 -1 34 0
11 36 41 0
-46 33 -22 0
-29 27 4 0
18 -48 -39 0
-4 -37 -28 0
-18 43 44 0
-1 17 22 0
-47 -25 48 0
-41 4 46 0
29 6 13 0
-25 13 -7 0
2 -30 9 0
-14 47 39 0
-46 -12 15 0
-8 5 -36 0
17 32 13 0
-8 16 -44 0
4 -24 34 0
1 29 -18 0
33 26 -44 0
13 -45 -17 0
17 10 36 0
-40 -17 41 0
22 -46 -34 0
-15 37 -22 0
-9 24 26 0
-8 35 6 0
-9 -43 -4 0
29 -47 7 0
-3 -4 38 0
-15 -45 36 0
38 -32 -28 0
16 -31 37 0
18 -12 41 0
6 4 -16 0
47 21 1 0
-25 3 -36 0
-16 13 4 0
32 -27 -10 0
-42 -38 -12 0
-10 20 -21 0
34 -29 -27 0
-37 -13 32 0
-6 14 3 0
42 3 -6 0
38 -1 -32 0
24 -35 -39 0
-43 -28 31 0
3 -15 -23 0
-2 43 -13 0
-38 -36 8 0
27 15 33 0
-1 -14 -37 0
-20 -18 17 0
-36 -46 31 0
3 -41 37 0
-6 16 42 0
-43 -11 -26 0
40 48 -38 0
-19 2 -13 0
-18 35 20 0
-20 -26 34 0
-12 -28 -40 0
-24 17 39 0
-11 -36 -33 0
41 -38 -25 0
2 -40 27 0
-38 -7 -21 0
-2 25 5 0
-1 5 -45 0
8 -2 39 0
-27 39 30 0
3 31 -41 0
-38 -40 -11 0
10 6 11 0
46 -36 12 0
-38 -45 -18 0
35 24 40 0
32 -36 -13 0
16 11 -8 0
46 5 21 0
26 35 -28 0
38 14 26 0
-14 44 -42 0
-27 -25 12 0
25 -7 -41 0
48 47 -29 0
-16 -14 -20 0
-36 -22 -45 0
46 48 -31 0
42 -39 33 0
-20 21 -10 0
-30 24 -11 0
-32 41 -30 0
-45 8 -20 0
26 -12 -37 0
-48 -24 -41 0
41 -4 -22 0
39 -36 13 0
25 27 48 0
19 -20 23 0
23 7 2 0
-46 26 -48 0
21 -24 3 0
-15 36 21 0
-12 48 -2 0
-42 38 17 0
-1 -38 -47 0
17 -1 -35 0
14 19 9 0
35 -45 -8 0
-48 17 -20 0
