c Coffinhead hard-core n=48 seed=6 ratio=4.0
p cnf 48 192
7 -23 -8 0
33 37 2 0
-27 15 1 0
31 40 33 0
-42 -41 -34 0
22 -9 18 0
-37 35 -14 0
-27 5 -29 0
-38 6 -19 0
10 -14 -4 0
21 10 -30 0
-44 -11 -12 0
-48 46 -14 0
-20 -38 -21 0
9 5 -22 0
22 -1 45 0
-5 36 -29 0
-33 -19 18 0
40 26 -18 0
-29 -21 -8 0
-36 31 2 0
45 37 -38 0
34 -43 18 0
-4 -33 36 0
1 6 -41 0
-20 -4 46 0
-32 -36 -27 0
32 12 40 0
35 37 -20 0
-24 -20 3 0
-48 6 4 0
-36 7 -11 0
-4 -13 33 0
-31 -32 -16 0
22 17 -30 0
-7 -44 29 0
13 -19 11 0
46 38 -22 0
-10 -2 -27 0
-41 -21 6 0
9 32 33 0
19 35 30 0
-36 37 -24 0
-47 -32 19 0
32 10 1 0
-30 20 48 0
-23 -1 -28 0
42 -41 -29 0
-34 29 -40 0
-45 29 -8 0
44 23 18 0
9 8 -16 0
2 36 30 0
-19 22 -1 0
-11 7 21 0
-28 16 38 0
-35 29 -13 0
-8 6 -18 0
-30 -38 12 0
-43 -22 3 0
-28 5 -31 0
-16 13 5 0
-47 -23 -34 0
-33 -45 9 0
-16 -3 -27 0
-6 30 44 0
25 28 -13 0
-37 -28 41 0
31 -6 -1 0
-36 -39 -21 0
-15 -14 48 0
-20 40 -2 0
-6 -13 24 0
-1 48 13 0
-8 -36 39 0
16 -23 -27 0
28 -8 -29 0
1 -37 13 0
-42 -5 33 0
43 12 10 0
-15 28 46 0
-31 41 5 0
-8 -23 -31 0
-18 -35 -34 0
5 -7 -40 0
-4 -29 27 0
39 4 -36 0
-12 -21 18 0
48 -15 -27 0
-35 40 21 0
48 -32 -8 0
-36 38 42 0
-37 28 17 0
-46 2 3 0
-30 -34 -39 0
20 38 -41 0
-3 16 23 0
-4 -42 46 0
36 1 34 0
18 -6 29 0
-27 12 32 0
3 -43 -14 0
19 39 -38 0
-10 46 -42 0
-2 -30 -9 0
8 21 -22 0
35 19 -33 0
-37 16 47 0
45 16 40 0
-34 31 43 0
32 28 3 0
-35 -17 32 0
38 -25 -12 0
41 -46 -9 0
-4 48 -36 0
-7 28 -27 0
12 17 -32 0
5 43 41 0
-24 10 26 0
-21 43 -11 0
-40 -41 -33 0
31 28 5 0
-10 -34 -30 0
-33 -48 25 0
6 29 -23 0
19 -48 46 0
3 31 -4 0
-18 38 24 0
1 7 27 0
22 -3 -45 0
20 40 -8 0
33 45 -41 0
48 44 -32 0
-37 14 -6 0
21 42 29 0
20 -42 45 0
6 -45 23 0
-13 -21 -8 0
18 -44 41 0
7 21 -20 0
-44 39 -41 0
11 -42 -28 0
46 41 42 0
-38 13 16 0
-22 -24 21 0
11 45 3 0
-26 -14 -25 0
-43 -16 36 0
7 24 14 0
-26 -43 3 0
41 -25 -14 0
8 31 15 0
11 -3 27 0
18 -44 33 0
-11 17 -23 0
-16 33 26 0
-21 27 1 0
10 13 29 0
-41 -17 44 0
-31 3 32 0
-24 -29 -14 0
-37 -39 30 0
-6 -35 15 0
5 -19 -48 0
27 42 36 0
32 -38 40 0
44 -7 32 0
12 14 -15 0
31 -18 -23 0
19 20 34 0
-47 -30 16 0
10 -48 -18 0
-37 -41 1 0
47 12 35 0
4 14 23 0
-41 -18 -45 0
39 -19 -3 0
-13 -24 19 0
5 -10 -40 0
8 -12 2 0
-45 5 -14 0
11 -16 -38 0
36 42 2 0
35 -25 -46 0
-32 9 -8 0
-41 24 27 0
-21 14 10 0
23 -45 3 0
-33 -6 -24 0
-38 9 -19 0
-1 41 46 0
-48 29 -47 0
