c Coffinhead hard-core n=48 seed=40 ratio=4.0
p cnf 48 192
-25 -41 -17 0
-37 -45 -19 0
-48 -22 -44 0
-42 14 -5 0
32 -43 -3 0
46 15 -22 0
28 21 13 0
-40 6 -17 0
36 47 42 0
-29 35 -11 0
-38 -18 -10 0
-26 -28 -46 0
2 -18 -24 0
13 28 -30 0
-13 26 48 0
-22 -25 -3 0
8 -3 14 0
-22 -37 19 0
24 11 -28 0
31 18 -35 0
12 37 -33 0
-8 -5 38 0
-8 -46 6 0
-18 -39 13 0
-27 -3 26 0
45 32 26 0
33 16 41 0
-32 39 -20 0
36 -6 17 0
-44 17 -37 0
31 -13 -7 0
11 -40 13 0
2 7 44 0
45 -37 38 0
-47 20 -14 0
-47 19 -39 0
-45 24 -22 0
36 43 -28 0
-45 -23 44 0
-38 30 -17 0
-12 43 20 0
-17 42 -48 0
-38 8 17 0
27 -15 -35 0
31 -5 19 0
-41 -14 46 0
-10 -27 36 0
-11 -9 -8 0
-5 -27 48 0
-23 -21 -38 0
26 -4 -6 0
47 34 -20 0
-38 4 29 0
-2 30 -22 0
11 26 -19 0
10 -11 27 0
-25 -14 -37 0
-13 17 23 0
-17 -1 22 0
-6 -11 -27 0
10 -39 -24 0
24 15 -5 0
-35 32 5 0
22 39 -24 0
-7 -19 3 0
15 -26 -27 0
-39 33 9 0
15 35 18 0
15 2 -24 0
-27 -39 -45 0
36 -29 -27 0
-15 -11 48 0
-7 29 8 0
-17 -18 13 0
-6 -40 47 0
-36 -18 31 0
46 31 20 0
43 8 25 0
46 -2 33 0
20 -4 37 0
-17 -2 -30 0
38 25 10 0
21 -13 47 0
-24 -29 33 0
-3 23 36 0
28 -13 -4 0
8 -10 -6 0
21 -16 -41 0
-1 -39 -42 0
-31 38 37 0
-31 -32 -5 0
-35 34 39 0
-2 -45 -22 0
30 -36 -2 0
33 19 40 0
-38 44 -47 0
21 22 -29 0
23 43 46 0
-27 -29 32 0
-31 -9 37 0
-28 -41 24 0
-5 20 33 0
29 24 43 0
-8 28 29 0
24 14 -45 0
3 47 -7 0
16 -21 -26 0
40 30 25 0
32 -2 37 0
-6 -37 33 0
-22 4 35 0
11 -18 2 0
17 37 25 0
-43 15 2 0
11 -10 -17 0
11 8 46 0
-34 -4 45 0
46 39 -45 0
33 40 5 0
-19 -47 -38 0
14 -44 33 0
8 47 32 0
-48 -40 7 0
23 29 -46 0
-2 40 6 0
-22 -47 39 0
15 -36 35 0
17 29 34 0
-32 -46 45 0
-27 3 40 0
20 -8 -28 0
-35 -1 -8 0
-17 45 32 0
-13 -16 24 0
-35 -30 9 0
-33 -42 -4 0
3 -15 -14 0
-39 17 -13 0
38 -15 1 0
2 6 15 0
13 -18 44 0
-14 44 -20 0
-9 -23 39 0
-32 -1 4 0
-18 -6 -47 0
12 -33 4 0
17 -10 -30 0
45 14 -25 0
40 23 17 0
6 4 12 0
19 -40 -32 0
-5 33 4 0
-28 -33 11 0
-30 10 -2 0
-18 -6 -33 0
-14 -13 -28 0
26 31 10 0
-2 -31 -7 0
-14 -5 -18 0
-40 30 -44 0
-39 25 -22 0
23 47 7 0
18 32 40 0
1 38 35 0
14 41 -19 0
-11 38 -15 0
-21 31 7 0
38 -39 20 0
23 33 -39 0
-39 31 -14 0
-6 13 -28 0
-26 -17 -16 0
9 24 39 0
37 36 26 0
-19 -16 2 0
-5 30 -9 0
-45 40 -4 0
36 -3 -41 0
26 -24 33 0
-39 -20 32 0
17 22 -34 0
37 -5 20 0
32 -11 -21 0
-43 14 12 0
9 31 1 0
-27 -33 -48 0
-10 47 -41 0
-42 -2 -29 0
4 -38 10 0
14 -9 1 0
-36 -17 8 0
29 11 -16 0
