c Coffinhead hard-core n=48 seed=43 ratio=4.0
p cnf 48 192
-44 36 -24 0
3 32 28 0
-38 21 -37 0
1 -12 22 0
-14 -6 9 0
-32 -33 38 0
-41 -15 -13 0
-34 14 1 0
-31 25 5 0
-17 19 -13 0
42 10 18 0
-24 -33 -11 0
46 -44 25 0
-1 -39 40 0
-20 -38 -46 0
-17 7 34 0
30 45 -32 0
-31 36 -10 0
12 -46 45 0
12 18 -28 0
-3 -18 35 0
6 -26 -42 0
-17 -15 -22 0
-5 44 21 0
29 -35 -11 0
30 38 11 0
-7 -33 -14 0
-28 -46 14 0
48 38 37 0
-37 9 23 0
-4 -39 20 0
13 -36 25 0
-2 -19 -5 0
-19 17 11 0
36 -45 -23 0
1 40 17 0
-29 -35 16 0
29 -26 33 0
-2 1 5 0
9 -11 -20 0
23 -5 -19 0
-32 5 25 0
-41 15 37 0
-16 -15 47 0
-47 -39 3 0
-18 -45 -13 0
-17 -24 -1 0
39 34 -16 0
15 -20 -10 0
-21 -4 -27 0
-20 -17 -4 0
-20 3 7 0
-40 -16 -2 0
-27 26 -6 0
15 -2 -35 0
-26 24 -28 0
47 19 -9 0
20 -37 -39 0
-11 -33 -27 0
9 44 -29 0
-45 -10 12 0
19 47 -39 0
11 -8 -37 0
40 -26 -17 0
26 -15 -45 0
-3 30 17 0
-41 18 -29 0
-33 1 46 0
-8 22 38 0
-22 1 -30 0
-30 10 -29 0
29 -4 32 0
-15 37 -42 0
-6 -32 37 0
18 16 31 0
16 -40 -41 0
-30 5 16 0
-37 -23 -43 0
2 -13 31 0
4 -16 14 0
-15 23 -6 0
6 34 23 0
-18 -2 -40 0
46 -6 -24 0
4 34 -13 0
-16 -26 5 0
-46 -14 -40 0
-30 -25 3 0
-24 -25 11 0
-46 -31 26 0
1 -21 -31 0
-23 13 -34 0
-45 44 46 0
-45 31 -21 0
-26 3 44 0
-13 43 -2 0
-48 -20 7 0
42 12 17 0
-6 25 11 0
37 -46 14 0
-3 -20 38 0
18 6 32 0
34 -5 29 0
-9 46 27 0
36 26 -7 0
-1 9 -16 0
48 19 -26 0
-8 -40 29 0
-21 47 14 0
8 -35 36 0
30 -39 24 0
21 33 24 0
37 28 48 0
-40 8 -41 0
28 33 -22 0
-29 -5 -1 0
48 17 -14 0
19 15 17 0
-39 -29 -18 0
24 31 -39 0
17 -45 18 0
-5 -38 -8 0
42 -11 48 0
-9 -30 -19 0
-21 -44 40 0
-9 -11 10 0
-44 -27 -12 0
-32 14 -37 0
43 40 -42 0
-3 -31 -26 0
-33 17 7 0
31 32 -35 0
25 -15 27 0
-14 -13 -6 0
44 -40 46 0
-34 7 24 0
5 -32 1 0
2 5 -24 0
13 47 -28 0
-16 4 19 0
-11 -41 -29 0
-10 -27 -18 0
-11 -18 1 0
43 36 25 0
11 13 33 0
12 27 21 0
23 -20 -25 0
9 8 47 0
-10 43 46 0
-30 -11 21 0
43 24 22 0
36 -12 19 0
-48 -44 37 0
-43 -24 23 0
22 -25 -12 0
-23 -5 14 0
3 -4 5 0
14 7 -8 0
6 -20 21 0
14 -3 -44 0
29 42 31 0
15 -31 -34 0
-25 13 -21 0
45 -28 35 0
-25 46 43 0
8 -46 -32 0
35 -48 -24 0
-23 35 2 0
32 35 14 0
12 32 17 0
20 21 28 0
17 10 25 0
13 39 -20 0
38 -14 -17 0
1 12 -15 0
-7 -9 23 0
-30 -31 -20 0
25 41 -22 0
-33 32 22 0
9 21 -22 0
6 45 -28 0
4 -29 -24 0
37 -15 -26 0
40 41 -33 0
-13 -11 -24 0
-6 -28 25 0
15 48 1 0
-45 2 -1 0
34 -26 46 0
37 45 -43 0
-18 -39 -20 0
33 -13 -1 0
