c Coffinhead hard-core n=48 seed=15 ratio=4.0
p cnf 48 192
-16 40 -9 0
-16 3 -17 0
-26 14 9 0
-41 -42 -30 0
3 20 -17 0
-39 -19 -32 0
-4 -34 32 0
-33 -2 38 0
23 19 -27 0
15 -46 -7 0
39 38 -48 0
-11 28 -37 0
40 47 9 0
38 -35 -10 0
-8 40 33 0
36 22 -10 0
5 6 -27 0
25 -24 -43 0
-43 47 34 0
18 -2 -25 0
-38 -26 -6 0
23 2 -12 0
-21 38 44 0
3 -8 23 0
-25 -47 -8 0
-23 -24 -35 0
-10 -40 -21 0
20 -35 -13 0
-18 21 38 0
3 10 -33 0
-30 20 -17 0
32 -11 -36 0
3 -15 25 0
-32 19 -41 0
39 22 -47 0
18 7 -24 0
-20 1 19 0
48 44 23 0
44 24 37 0
35 -45 -38 0
44 -1 -30 0
23 43 17 0
-16 -35 14 0
44 43 29 0
-34 30 38 0
-10 -24 -36 0
-13 45 26 0
24 -48 -3 0
-5 -17 14 0
-14 -44 -21 0
-17 45 -43 0
26 -17 -30 0
5 -17 47 0
26 -17 4 0
38 22 -29 0
35 -45 46 0
-17 -46 -16 0
-28 -48 -35 0
17 -28 35 0
43 27 38 0
-9 21 29 0
13 1 -40 0
18 -41 -12 0
-25 -26 17 0
32 -16 20 0
25 7 28 0
47 10 16 0
3 48 33 0
22 -37 -27 0
-19 48 25 0
-25 44 23 0
-36 -1 18 0
45 -7 44 0
45 10 -16 0
26 39 31 0
24 -23 34 0
35 6 -36 0
37 17 -42 0
-46 11 -28 0
20 -23 43 0
-23 32 -37 0
-40 20 35 0
-22 13 8 0
33 -25 -41 0
-44 -43 18 0
2 -33 10 0
-37 19 14 0
25 -32 -7 0
-31 -15 -41 0
-16 -48 9 0
32 -7 33 0
-46 15 -34 0
1 -9 17 0
23 15 31 0
-45 -24 -14 0
-9 -36 43 0
38 -6 29 0
3 -33 -17 0
-8 48 33 0
22 -3 -37 0
29 21 -14 0
-36 -17 -6 0
1 15 -5 0
22 10 8 0
48 -13 2 0
-10 -5 22 0
8 21 -29 0
-21 13 -45 0
-37 12 18 0
-13 -22 41 0
33 24 31 0
25 -10 19 0
8 31 -40 0
24 -25 -46 0
40 -37 32 0
2 -11 -42 0
44 -25 33 0
46 32 -2 0
-13 45 19 0
-26 6 -18 0
-40 10 47 0
11 -1 45 0
-39 -1 33 0
-45 8 -10 0
-45 36 8 0
42 1 11 0
-33 42 22 0
37 45 36 0
22 -5 -4 0
31 47 10 0
25 47 -35 0
-35 43 22 0
-21 43 40 0
8 36 25 0
23 -46 10 0
-48 20 1 0
42 34 -28 0
-33 32 8 0
10 25 -23 0
-8 35 27 0
-18 -38 26 0
-12 -5 11 0
-10 20 1 0
31 17 -43 0
26 -5 -45 0
-4 46 6 0
26 -25 15 0
4 14 9 0
-4 31 6 0
38 22 -24 0
-1 -47 4 0
33 41 -24 0
-5 8 -18 0
-21 19 3 0
-3 2 -22 0
21 19 -24 0
-22 33 -11 0
-12 47 -19 0
-7 -40 46 0
18 -25 23 0
32 23 -10 0
9 -28 3 0
-24 44 20 0
-23 8 39 0
42 -45 -38 0
5 -1 37 0
-37 -30 33 0
-37 41 -39 0
-3 2 34 0
34 -46 -21 0
27 29 -16 0
-24 26 -29 0
-14 5 -13 0
5 21 29 0
-5 20 -27 0
-23 13 8 0
14 -30 -19 0
-45 10 28 0
-19 -17 24 0
-2 15 -10 0
19 5 36 0
-32 -40 42 0
28 48 47 0
45 -7 41 0
27 -44 -45 0
3 -20 32 0
-7 -22 38 0
-20 -19 41 0
5 -17 42 0
-38 -41 28 0
28 43 -10 0
-17 -8 -3 0
