c Coffinhead hard-core n=48 seed=26 ratio=4.0
p cnf 48 192
43 27 30 0
-37 36 -29 0
-41 -23 4 0
26 31 4 0
-12 -35 -29 0
34 -24 30 0
-2 -16 -33 0
-6 11 30 0
-19 -21 28 0
-44 25 7 0
31 -36 8 0
21 16 -3 0
41 -33 29 0
-2 -43 29 0
30 1 -29 0
23 -31 43 0
-21 8 -41 0
-26 38 34 0
-43 -33 26 0
-39 22 -4 0
25 -41 -4 0
-25 28 -45 0
33 -38 43 0
12 -11 -40 0
19 -14 -37 0
-12 25 18 0
5 20 -38 0
29 -21 -6 0
18 -22 -31 0
-45 -1 -30 0
-14 -20 -43 0
5 34 32 0
-7 4 12 0
-39 24 -11 0
-23 -46 -39 0
24 38 34 0
14 5 17 0
-8 -13 18 0
-14 25 28 0
-17 44 8 0
20 -40 -48 0
-25 23 -10 0
-7 1 -45 0
-34 -10 46 0
-41 42 47 0
10 -9 -11 0
19 1 -26 0
8 15 -33 0
10 -48 21 0
-46 -31 -5 0
-24 10 15 0
1 19 -42 0
4 28 9 0
26 2 38 0
-41 3 -31 0
-21 39 -15 0
12 -35 9 0
-8 40 41 0
8 -36 14 0
33 -18 22 0
27 -10 1 0
27 -1 9 0
-30 -21 42 0
37 -15 9 0
-3 8 -6 0
-41 -27 -47 0
-26 43 44 0
-8 -30 40 0
10 -2 -28 0
-13 -32 20 0
2 27 -9 0
-19 31 21 0
35 -14 33 0
4 19 -2 0
1 18 -9 0
5 -29 -14 0
43 -13 -25 0
23 -16 -7 0
38 6 -1 0
-28 -25 -39 0
-16 -45 -17 0
9 40 45 0
-8 1 -35 0
6 33 21 0
-16 37 39 0
-5 27 -39 0
-14 45 -27 0
-14 20 -4 0
19 21 -39 0
-18 46 1 0
43 -21 -44 0
-15 39 36 0
-33 41 1 0
7 -30 -39 0
4 -11 29 0
-46 29 9 0
22 -33 -34 0
-12 4 -11 0
-33 -9 24 0
-25 5 47 0
25 29 36 0
-13 -32 -28 0
43 -27 -30 0
-36 10 -25 0
-45 -20 40 0
-33 16 -14 0
-16 -33 25 0
-29 -7 5 0
-33 14 16 0
4 13 10 0
-45 -12 -24 0
4 13 -18 0
42 25 -13 0
-42 10 -32 0
11 3 -37 0
-12 -29 -8 0
2 -30 -5 0
43 -14 -47 0
41 28 -12 0
-43 11 -47 0
17 -19 -27 0
8 12 -44 0
47 -10 -27 0
-43 -36 -46 0
-12 19 40 0
-13 -18 32 0
-34 10 -24 0
1 -43 -20 0
14 -39 -24 0
24 26 -25 0
-38 10 26 0
-10 8 -23 0
39 -15 3 0
23 44 38 0
-45 -28 2 0
15 -26 -1 0
11 -17 -38 0
11 -31 7 0
40 -44 -48 0
-5 -9 -43 0
17 -48 27 0
-39 26 10 0
43 -27 -3 0
-16 -5 -45 0
40 34 -47 0
7 20 39 0
-26 -47 -4 0
24 -14 1 0
6 33 27 0
-13 44 -14 0
3 1 29 0
43 42 3 0
-38 24 -17 0
33 21 -32 0
-30 7 -2 0
44 7 30 0
-5 -20 24 0
-19 38 32 0
12 19 -39 0
48 -34 -12 0
-11 26 19 0
37 12 -36 0
-35 20 -33 0
-40 42 8 0
-1 -43 40 0
8 29 -38 0
-38 31 -36 0
-40 2 -46 0
-3 12 -26 0
-14 45 -23 0
41 -26 36 0
-29 -23 -10 0
31 34 -24 0
28 -40 -17 0
-10 -43 7 0
-28 5 36 0
37 -45 -44 0
-23 -41 -1 0
-12 -41 35 0
41 -1 -12 0
-17 23 42 0
21 -31 11 0
-26 -46 -28 0
-15 -37 23 0
38 -36 -45 0
24 -17 -15 0
37 23 35 0
10 16 27 0
27 41 -17 0
-8 -23 -32 0
46 25 -20 0
-40 -7 10 0
