c Coffinhead hard-core n=48 seed=60 ratio=4.0
p cnf 48 192
-13 45 -17 0
47 -3 11 0
25 -27 22 0
8 43 -22 0
35 -7 -23 0
-4 -8 -25 0
-40 41 15 0
1 46 -32 0
-29 3 19 0
9 33 -24 0
-18 44 -10 0
-35 -18 15 0
15 13 -35 0
31 -2 -40 0
-42 9 41 0
3 33 44 0
47 -31 -30 0
-45 19 11 0
-11 -4 3 0
-21 -18 29 0
-6 -20 41 0
11 7 39 0
6 41 -1 0
-14 -29 -16 0
-23 -32 26 0
-37 -18 -24 0
11 16 -21 0
42 -10 -46 0
-41 42 -19 0
33 -38 47 0
-18 -14 -22 0
29 -47 -20 0
45 -32 -42 0
25 -42 -20 0
-36 24 10 0
39 37 -23 0
38 2 -11 0
6 34 31 0
43 -12 27 0
-20 41 -40 0
-42 11 -45 0
-5 8 43 0
-9 -45 12 0
33 -43 26 0
19 -35 10 0
8 30 -41 0
-1 -15 -7 0
47 -36 -29 0
-35 43 -36 0
-33 9 27 0
-45 -27 14 0
28 22 -13 0
-25 -45 -2 0
47 9 -8 0
9 27 -13 0
-45 34 -10 0
-39 -14 -3 0
-9 42 -22 0
21 -1 24 0
-21 46 -44 0
13 35 -43 0
-42 27 20 0
25 3 19 0
14 48 -19 0
-26 46 -39 0
18 -4 -34 0
-1 -26 5 0
-32 46 11 0
26 -24 1 0
-23 3 -40 0
-26 36 5 0
-25 1 -5 0
-44 15 32 0
-26 -21 -20 0
-22 -36 31 0
21 28 -24 0
-32 18 -47 0
-9 37 15 0
-31 46 37 0
-42 27 2 0
-11 -13 18 0
2 -20 -25 0
-29 47 38 0
-47 48 37 0
11 -16 38 0
-10 5 -28 0
5 -33 39 0
17 18 30 0
-21 42 22 0
19 -30 -48 0
13 -1 -41 0
-22 -45 -44 0
8 -21 37 0
-13 29 34 0
7 -35 30 0
-9 25 -38 0
33 -44 6 0
-25 -16 -43 0
-3 38 2 0
-45 33 -20 0
48 -17 -28 0
27 45 -38 0
6 -2 28 0
-46 -28 -24 0
26 -46 -5 0
42 5 -32 0
46 -6 -36 0
11 -19 -36 0
-28 32 -13 0
-26 -1 -16 0
-25 -24 44 0
-15 -41 10 0
23 13 42 0
37 20 16 0
-15 -27 7 0
14 -33 18 0
25 -1 -20 0
39 6 -19 0
-27 12 -7 0
-19 38 2 0
-11 -32 12 0
42 13 -20 0
-9 31 -3 0
-46 14 -34 0
-11 -34 15 0
9 13 -39 0
-35 -43 10 0
-4 -7 -2 0
-15 19 -7 0
4 -38 24 0
-32 -28 -34 0
-26 -47 -25 0
36 -11 43 0
-27 -17 -28 0
-25 -29 31 0
30 -18 11 0
45 -35 17 0
17 -15 6 0
26 -46 -9 0
-20 19 18 0
-34 -44 33 0
24 31 7 0
-47 2 -10 0
-37 8 5 0
15 36 46 0
-7 -38 -30 0
-14 -17 47 0
-30 -3 22 0
48 37 44 0
-20 45 -21 0
-11 15 28 0
-16 -15 3 0
-1 8 11 0
31 -25 9 0
35 -10 -25 0
-4 44 31 0
25 -47 34 0
24 -12 -45 0
-32 -19 -37 0
-32 -34 30 0
40 -17 13 0
40 -3 -16 0
-40 -34 -13 0
41 -26 27 0
-33 -3 -36 0
-18 -23 -44 0
-44 -19 -42 0
-7 14 3 0
29 38 25 0
-39 30 -46 0
37 -12 -24 0
-35 47 -36 0
14 10 -39 0
2 4 -30 0
28 -19 16 0
-44 -13 6 0
-26 23 -25 0
18 -38 28 0
-34 7 -48 0
-25 -46 -15 0
25 -30 -23 0
27 -8 26 0
23 -18 5 0
13 -40 -12 0
40 -30 -38 0
-13 31 -46 0
33 16 9 0
-41 -28 24 0
-27 13 -28 0
-3 34 4 0
-15 -24 14 0
24 -38 44 0
