c Coffinhead hard-core n=48 seed=41 ratio=4.0
p cnf 48 192
10 18 22 0
22 -20 23 0
42 18 15 0
-23 -30 26 0
2 -40 19 0
-8 16 48 0
20 19 -41 0
-21 24 23 0
-26 -5 9 0
32 -40 -1 0
-24 -48 25 0
-11 -7 -46 0
-15 12 -43 0
-4 44 1 0
-44 -16 -29 0
-1 -17 -33 0
-34 27 -20 0
-22 -24 13 0
13 17 39 0
-25 -43 -47 0
47 42 29 0
-9 13 3 0
-29 1 -13 0
-22 -3 24 0
22 11 -24 0
-13 25 -26 0
-19 1 25 0
-7 -43 -26 0
17 -14 21 0
33 14 -11 0
33 21 -28 0
12 -41 -8 0
27 16 8 0
8 33 -47 0
25 -9 -4 0
26 34 27 0
1 -11 38 0
3 -30 48 0
9 12 -38 0
22 8 -5 0
-5 -21 10 0
-48 35 -30 0
47 -3 38 0
-36 -25 44 0
27 7 16 0
27 37 47 0
-41 -35 25 0
9 -29 -12 0
-20 -17 23 0
18 -35 38 0
-37 3 12 0
19 -2 -24 0
41 -13 11 0
-6 17 23 0
7 -37 36 0
-2 -34 -4 0
-14 -20 5 0
-6 2 -30 0
21 23 -45 0
-27 39 -9 0
-27 28 29 0
40 47 -21 0
-30 23 37 0
15 -40 -22 0
-38 -26 -6 0
28 1 -41 0
26 -25 -34 0
-29 38 -18 0
38 27 6 0
15 11 -19 0
11 -9 -34 0
41 -3 -10 0
-20 46 25 0
14 43 23 0
33 3 39 0
-37 -4 26 0
-17 -27 -44 0
8 33 -13 0
-2 -29 -34 0
-14 -4 46 0
4 -47 24 0
-25 9 -43 0
3 15 38 0
40 34 8 0
6 -42 3 0
35 -21 -32 0
-36 -25 31 0
-6 14 24 0
-22 16 46 0
24 9 -40 0
-29 4 40 0
-27 -20 -46 0
8 -1 18 0
-39 26 -14 0
-47 46 -25 0
37 31 -34 0
17 -15 35 0
32 -34 11 0
2 -45 -44 0
33 11 27 0
-21 45 41 0
-19 7 48 0
13 30 -28 0
-42 -35 -31 0
5 46 -33 0
32 -45 34 0
23 20 -12 0
5 15 -25 0
15 -6 28 0
-10 -13 -28 0
12 -6 46 0
-33 -40 12 0
21 -2 -46 0
6 44 47 0
-12 27 15 0
-8 -48 -15 0
-13 -16 21 0
11 7 27 0
-48 4 7 0
-11 -41 -25 0
25 35 11 0
-22 36 -38 0
-21 26 9 0
1 -36 30 0
-20 -6 40 0
32 -31 21 0
16 -4 -45 0
33 39 14 0
-27 41 -40 0
-15 -46 -25 0
19 -29 31 0
-43 -2 -4 0
-26 32 4 0
45 11 35 0
32 -46 -45 0
-48 -11 -46 0
-7 8 -30 0
36 1 -11 0
-36 -35 40 0
29 -5 15 0
-29 9 -47 0
-19 37 -10 0
-3 -7 -21 0
28 46 23 0
19 -42 39 0
-9 -13 31 0
34 17 -47 0
10 24 -4 0
-26 27 46 0
-2 11 -26 0
-25 42 26 0
44 -29 -19 0
-41 20 -31 0
47 -36 -46 0
-41 -42 5 0
-2 46 -11 0
16 46 36 0
34 18 11 0
26 31 -24 0
27 2 48 0
-2 -11 22 0
3 -31 8 0
2 -48 24 0
-22 -9 -47 0
24 -48 29 0
28 -16 25 0
46 -19 -35 0
16 14 30 0
21 -16 -6 0
13 27 16 0
30 -28 -11 0
-1 33 -43 0
29 34 -18 0
-27 -21 -24 0
40 -43 -36 0
-25 -23 30 0
33 10 32 0
13 -33 -29 0
46 15 8 0
11 -26 -46 0
-3 -44 13 0
-2 -36 4 0
44 18 14 0
-40 25 -35 0
2 19 4 0
-29 -12 21 0
-20 40 4 0
-25 6 39 0
25 48 -23 0
41 47 -4 0
42 46 -36 0
17 -35 3 0
