c Coffinhead hard-core n=48 seed=51 ratio=4.0
p cnf 48 192
-4 -44 -9 0
34 33 43 0
34 8 -14 0
32 36 -25 0
-1 38 -7 0
-22 9 -19 0
35 14 -25 0
-18 -14 -28 0
-44 -17 -36 0
21 32 7 0
10 -13 -48 0
31 26 -32 0
7 28 -22 0
45 -38 -33 0
32 -17 7 0
-47 43 -22 0
-46 -12 -45 0
3 -46 39 0
-29 9 -42 0
26 12 -21 0
1 32 -10 0
13 -9 -10 0
42 -12 -18 0
-14 -3 10 0
43 4 29 0
-25 -7 -20 0
8 19 -46 0
-32 -21 25 0
-1 23 -6 0
8 27 -37 0
-35 -34 4 0
46 39 16 0
14 -37 -13 0
23 10 19 0
-31 -47 48 0
-39 -16 -34 0
8 -34 -19 0
-27 36 -42 0
23 46 -15 0
24 48 36 0
24 31 -17 0
43 12 8 0
-21 -6 -32 0
-42 35 -24 0
31 -23 -21 0
-14 7 -33 0
-5 42 -16 0
47 -15 -3 0
41 -12 14 0
38 34 -25 0
-43 -18 -44 0
-35 19 -5 0
20 -5 1 0
35 3 45 0
35 -24 7 0
37 15 44 0
19 37 35 0
-30 -40 15 0
44 32 -36 0
7 45 48 0
33 -20 -29 0
36 -35 -39 0
36 -13 24 0
-24 -35 45 0
-17 3 13 0
-47 29 -22 0
13 -42 -23 0
-41 38 -39 0
-47 3 -43 0
-45 -11 -23 0
-48 10 30 0
39 47 -3 0
12 -36 -31 0
20 25 -14 0
35 8 -13 0
40 -18 -23 0
-39 -14 45 0
-21 8 -20 0
-40 48 43 0
29 -12 7 0
-8 -36 -22 0
-27 32 -23 0
-20 31 -48 0
44 -25 21 0
4 -27 -47 0
-37 -13 22 0
10 24 27 0
44 -6 -1 0
18 43 30 0
22 17 27 0
17 -6 28 0
-46 12 48 0
37 -19 -24 0
37 14 -2 0
18 -40 29 0
29 -2 -34 0
43 -16 -6 0
37 33 1 0
-43 -10 35 0
-40 17 24 0
40 21 -5 0
-38 27 39 0
-17 -29 -28 0
-46 -33 -14 0
1 -19 -40 0
-40 -41 23 0
-16 -48 6 0
-39 46 1 0
39 19 -6 0
-4 25 -2 0
-29 -21 -5 0
8 3 -24 0
-17 33 -27 0
-38 29 1 0
34 30 -11 0
-24 -4 36 0
-28 44 31 0
6 31 9 0
3 20 -4 0
19 -25 37 0
38 2 26 0
26 -36 -17 0
4 39 11 0
44 6 -10 0
6 28 4 0
-36 6 26 0
-41 -42 32 0
-48 -1 2 0
-22 34 25 0
-38 -26 -39 0
31 19 17 0
36 1 48 0
6 15 -38 0
-11 6 31 0
-48 -10 7 0
8 31 21 0
-31 24 39 0
-34 27 29 0
5 41 -16 0
-17 -18 -31 0
38 14 -37 0
32 46 -2 0
24 21 30 0
-46 11 48 0
30 1 -24 0
-36 9 17 0
26 -1 15 0
8 -14 37 0
-43 -29 -14 0
-20 -11 18 0
-10 -48 -18 0
-29 -22 -2 0
20 -25 -29 0
-27 -10 40 0
30 11 -5 0
47 -31 35 0
-38 -48 6 0
-14 -12 35 0
4 -13 10 0
47 -28 -14 0
34 46 45 0
-43 -4 24 0
19 -46 -7 0
-30 6 -17 0
8 25 -48 0
-11 15 -40 0
11 -36 15 0
36 15 -41 0
47 -18 23 0
17 40 -24 0
-21 -34 29 0
24 22 -46 0
35 -30 8 0
31 34 -21 0
-4 13 34 0
25 -12 11 0
34 -43 -40 0
44 39 40 0
34 41 -20 0
48 39 26 0
19 -36 11 0
31 16 -39 0
37 10 13 0
-6 -22 10 0
16 -13 48 0
-4 46 37 0
-14 -23 -2 0
30 13 -38 0
42 -27 -26 0
-24 -8 11 0
38 16 -23 0
-18 12 -36 0
