c Coffinhead hard-core n=48 seed=33 ratio=4.0
p cnf 48 192
34 10 -48 0
44 -43 4 0
-45 -39 -4 0
48 -4 10 0
-21 18 -20 0
-47 21 12 0
29 -24 -47 0
-30 -3 47 0
-6 -25 34 0
-1 -23 -19 0
35 14 -1 0
18 -47 1 0
-42 -44 47 0
9 -36 34 0
24 -26 -18 0
15 4 -16 0
2 -47 -40 0
10 21 11 0
-48 -21 -22 0
-11 20 12 0
-27 -18 6 0
7 25 45 0
-9 46 31 0
-29 -18 19 0
-9 1 -29 0
29 -13 -10 0
9 -4 27 0
19 6 45 0
-12 23 43 0
37 28 -24 0
-32 -42 -39 0
-27 -3 21 0
8 16 47 0
38 36 -15 0
-1 20 -33 0
13 44 40 0
-39 35 -1 0
-22 1 12 0
28 19 30 0
2 47 -27 0
-10 4 20 0
36 16 -7 0
10 12 16 0
32 -25 -15 0
21 -17 31 0
-41 -21 6 0
-42 48 17 0
14 16 12 0
-17 -11 10 0
29 25 7 0
-4 16 -9 0
-6 32 46 0
-16 -33 20 0
-21 2 -47 0
38 4 3 0
-29 -37 27 0
-29 40 38 0
8 -18 -22 0
42 -48 -33 0
40 13 -22 0
-40 -39 43 0
-43 7 35 0
-28 20 -22 0
29 -12 -28 0
31 16 4 0
-35 7 48 0
-3 2 39 0
-29 2 -24 0
-19 -39 -8 0
-25 -45 30 0
19 10 -3 0
-5 25 -11 0
1 -43 39 0
-25 -4 -7 0
-15 -9 -11 0
41 -32 -1 0
4 19 -9 0
5 -38 -40 0
22 15 -19 0
-7 18 40 0
30 28 -36 0
-24 -11 16 0
-13 8 15 0
-41 22 -6 0
-45 -16 12 0
-34 -23 7 0
-29 -17 9 0
4 -9 18 0
34 -33 -19 0
-36 23 -47 0
20 47 -15 0
40 11 7 0
20 -27 21 0
41 27 -48 0
3 46 36 0
9 17 -6 0
-9 19 35 0
-6 1 -21 0
-45 9 35 0
-5 32 -30 0
-20 -32 19 0
11 -28 -45 0
44 -42 -26 0
-2 8 42 0
-16 42 34 0
-17 18 5 0
26 41 16 0
27 -9 3 0
-48 27 -9 0
30 25 19 0
-13 -46 8 0
15 -16 6 0
42 17 10 0
-31 25 -45 0
40 -29 13 0
6 -13 1 0
12 -37 6 0
3 -47 18 0
-39 -16 -11 0
23 41 -8 0
-46 -1 38 0
-26 30 7 0
8 28 -27 0
-47 -46 40 0
-21 -8 -45 0
-16 -1 -40 0
20 -34 8 0
47 6 -10 0
44 -11 41 0
-14 -8 13 0
-38 11 28 0
29 3 -33 0
43 15 11 0
17 -7 45 0
-27 -34 -47 0
-27 17 37 0
47 42 8 0
-27 17 33 0
2 26 -23 0
12 -41 -34 0
41 -21 48 0
-29 43 28 0
-26 -30 4 0
18 -19 34 0
-28 17 23 0
16 -11 -38 0
22 9 45 0
5 26 37 0
21 13 6 0
-23 25 39 0
-20 -14 17 0
43 40 15 0
-12 33 38 0
-11 -40 25 0
43 -5 1 0
-39 -14 21 0
-20 -32 48 0
1 -42 -19 0
6 -9 -13 0
10 -1 -11 0
-48 -18 26 0
-6 -42 -21 0
31 -38 -3 0
46 -4 -39 0
-46 -18 4 0
20 31 -8 0
15 42 -25 0
-19 -23 -27 0
42 14 -8 0
26 -19 -16 0
11 -13 -3 0
-39 -11 -5 0
5 1 21 0
-31 -24 -22 0
2 -10 28 0
9 -36 15 0
22 24 15 0
-10 -34 -26 0
-38 37 -7 0
20 31 -24 0
-44 33 -31 0
-24 -17 -34 0
45 33 35 0
7 -3 31 0
-24 -1 -43 0
-38 -18 -9 0
20 -41 39 0
19 46 22 0
-11 20 26 0
28 17 -41 0
-12 -29 -40 0
-1 -24 -33 0
