c Coffinhead hard-core n=48 seed=32 ratio=4.0
p cnf 48 192
-1 -19 -48 0
17 29 43 0
35 7 33 0
4 -44 -47 0
-25 -42 -27 0
29 -14 31 0
45 38 -23 0
-40 45 -31 0
-44 -29 5 0
44 -42 27 0
22 33 -11 0
13 1 32 0
-41 -12 -3 0
-31 -24 -25 0
-4 9 -38 0
48 -42 46 0
-34 -35 25 0
-25 39 -30 0
26 23 25 0
-28 11 29 0
25 41 -33 0
-47 -15 -43 0
-25 -12 36 0
-36 4 -34 0
-39 12 43 0
-39 -41 -1 0
5 12 -21 0
-23 12 -30 0
-40 -5 -19 0
-8 -30 29 0
36 42 19 0
4 -47 -32 0
-12 3 18 0
33 -24 -46 0
-23 -2 -33 0
-13 37 -24 0
-31 38 -1 0
18 46 -40 0
-47 -27 45 0
-30 -37 -2 0
26 10 -28 0
43 15 38 0
41 -5 35 0
15 -27 6 0
9 24 16 0
20 -17 -15 0
12 -30 21 0
16 14 9 0
-48 -40 -15 0
-6 5 3 0
-1 5 29 0
3 -2 43 0
13 30 -23 0
-21 2 -1 0
34 28 -38 0
-1 -45 -44 0
5 -37 18 0
-33 -16 -7 0
-4 -11 -35 0
35 1 -42 0
-42 16 45 0
31 -8 47 0
-44 48 38 0
31 42 -38 0
-48 -34 28 0
46 34 2 0
-12 42 31 0
15 -4 2 0
33 -11 -2 0
46 -6 -44 0
32 -39 -22 0
10 -36 22 0
26 5 -10 0
39 -16 -41 0
7 -38 35 0
6 -11 48 0
19 -37 -17 0
-33 -18 -22 0
-28 13 -27 0
11 39 38 0
-46 47 23 0
31 1 24 0
29 23 -21 0
42 -23 1 0
-4 41 12 0
-46 1 28 0
13 26 37 0
-5 18 44 0
12 16 23 0
-21 -3 -18 0
-24 -1 -30 0
-25 -3 -48 0
-30 29 17 0
-20 30 -11 0
34 11 -39 0
9 -21 24 0
7 20 28 0
11 6 -34 0
-1 -3 -18 0
40 -1 -20 0
-38 47 -44 0
12 -41 27 0
-39 45 -23 0
5 47 20 0
42 23 36 0
-44 -7 -3 0
17 -47 13 0
13 35 43 0
43 6 -9 0
-35 -7 4 0
15 -30 -12 0
-11 -14 30 0
30 -13 -12 0
16 6 22 0
-37 -41 -46 0
38 -35 45 0
20 15 28 0
12 -11 -7 0
46 32 23 0
17 -19 12 0
-21 17 -19 0
37 -45 42 0
-31 -1 -21 0
32 -19 47 0
-2 41 -36 0
3 -35 26 0
15 -43 6 0
4 -39 30 0
24 11 -3 0
9 -18 10 0
-33 15 -5 0
9 41 -5 0
27 25 -42 0
14 -35 -42 0
-34 4 29 0
17 7 -38 0
11 -48 -24 0
33 45 15 0
-22 15 -34 0
-38 -34 -32 0
4 -47 29 0
33 30 -18 0
-46 19 -9 0
8 -16 -37 0
18 8 -29 0
-11 -32 22 0
-13 45 -34 0
34 -42 -21 0
-1 -30 22 0
31 -2 25 0
-8 26 10 0
6 -30 -47 0
38 16 -27 0
-30 -10 19 0
1 -6 -43 0
41 -21 29 0
6 -8 -38 0
20 -37 8 0
10 -18 -38 0
-28 39 42 0
33 34 -47 0
-4 9 36 0
39 27 8 0
14 8 21 0
27 -43 33 0
-43 -41 -23 0
-47 -8 -46 0
11 46 14 0
-38 -6 -10 0
6 -35 -5 0
42 14 33 0
-21 14 -2 0
-40 36 46 0
-2 14 -23 0
-6 -2 21 0
47 -17 39 0
-41 32 -40 0
17 11 29 0
-10 -33 34 0
36 -28 -31 0
11 -13 31 0
13 6 -46 0
40 39 33 0
20 -25 38 0
22 -39 -8 0
5 29 -43 0
46 -27 -4 0
26 35 -40 0
28 48 -31 0
-21 23 5 0
20 -25 -37 0
42 15 -48 0
