c Coffinhead hard-core n=48 seed=42 ratio=4.0
p cnf 48 192
11 -43 19 0
-20 1 -16 0
20 2 37 0
-48 -8 -21 0
40 -22 -19 0
34 -47 -35 0
-48 24 46 0
26 22 -6 0
-23 -20 -38 0
29 25 -26 0
-38 29 -20 0
-33 -48 -17 0
22 -24 17 0
26 -28 38 0
14 -2 -18 0
38 -43 -29 0
-28 -10 16 0
10 -24 -43 0
27 28 -32 0
-9 -16 -33 0
44 -5 -18 0
-8 33 17 0
-17 -18 -7 0
22 -17 -3 0
-13 39 24 0
-43 8 5 0
32 39 -46 0
40 11 14 0
16 43 33 0
24 2 -42 0
-6 11 23 0
-45 -20 32 0
19 -7 -43 0
32 -42 -34 0
16 7 18 0
24 -2 3 0
26 -37 3 0
-36 16 7 0
25 -15 -33 0
3 42 -11 0
-33 -10 17 0
-17 37 -18 0
-23 -19 -35 0
42 -22 26 0
32 -16 8 0
-27 17 13 0
-9 -11 18 0
-20 38 18 0
4 -27 15 0
-31 -27 -18 0
15 46 1 0
26 -16 -3 0
-22 14 -42 0
-15 45 -21 0
46 -18 -4 0
-48 -47 31 0
28 12 -19 0
-25 -15 -24 0
10 -30 -42 0
-39 -22 1 0
44 3 -40 0
-3 -40 -38 0
-2 23 40 0
-4 43 -39 0
37 27 -13 0
38 -31 2 0
26 21 -38 0
7 -44 37 0
-16 42 40 0
14 -23 40 0
36 -26 -37 0
-9 -4 -13 0
-36 -37 -5 0
32 21 -27 0
22 -47 -1 0
33 47 -32 0
19 26 -48 0
-44 43 -20 0
11 -29 15 0
23 10 -8 0
2 -19 43 0
21 33 -29 0
-5 -46 -20 0
48 44 6 0
8 -24 3 0
-14 -32 -30 0
-47 45 -19 0
16 -44 34 0
17 -39 -48 0
24 48 47 0
-14 -6 30 0
30 37 -21 0
-4 40 -19 0
24 10 -44 0
31 -16 -46 0
13 -2 22 0
-20 2 44 0
36 -29 13 0
-5 46 -48 0
15 -38 10 0
-33 -5 -10 0
34 -7 32 0
33 -11 3 0
-28 13 37 0
-26 -8 -28 0
34 -10 -48 0
-14 13 18 0
42 -7 -4 0
20 -41 24 0
5 30 36 0
-20 39 5 0
39 -44 27 0
24 -23 -5 0
45 -10 43 0
23 47 -3 0
-39 34 42 0
33 44 35 0
-27 -12 -24 0
37 -25 -21 0
-5 -18 11 0
-20 28 -22 0
-28 -16 44 0
-26 16 38 0
-32 -43 16 0
-33 15 -44 0
38 -10 -43 0
-37 10 -21 0
39 8 -34 0
31 -41 -19 0
-15 -16 -6 0
-24 -3 -4 0
-32 -35 44 0
-33 -34 38 0
-5 -31 -29 0
9 -14 -8 0
32 11 6 0
-48 42 -32 0
13 47 -41 0
48 -7 20 0
-12 41 -37 0
-20 11 -3 0
-43 -18 -11 0
-33 4 37 0
16 -33 31 0
-5 11 -24 0
-4 2 46 0
-17 14 46 0
19 -8 44 0
-23 -9 -31 0
-39 37 -1 0
35 -22 -47 0
-12 -6 39 0
-2 32 14 0
-3 7 24 0
-26 -30 35 0
-3 -38 10 0
-21 45 -41 0
-42 -22 1 0
6 -27 15 0
29 -15 -38 0
-29 27 -7 0
3 7 -46 0
-17 -16 -24 0
3 -2 -28 0
14 -1 21 0
-29 -25 -21 0
38 8 -33 0
-9 -3 -25 0
46 38 -8 0
-2 21 27 0
-13 -18 -41 0
48 -18 7 0
10 -25 -23 0
-1 -24 7 0
30 37 14 0
27 -47 -16 0
-32 3 -13 0
19 12 3 0
44 -31 47 0
-42 44 -20 0
39 47 34 0
31 3 -24 0
44 25 -47 0
2 -13 -32 0
-29 12 -11 0
-26 36 -7 0
-18 13 21 0
-38 -3 22 0
40 2 -42 0
-37 47 -42 0
-22 27 -48 0
38 11 -10 0
