c Coffinhead hard-core n=48 seed=3 ratio=4.0
p cnf 48 192
-4 28 -24 0
39 4 26 0
-27 -33 -43 0
-26 -27 19 0
-19 23 -43 0
-25 4 -8 0
-20 -8 30 0
24 -41 17 0
14 17 11 0
41 19 9 0
-26 9 33 0
25 -29 -30 0
44 29 27 0
27 17 -22 0
23 -31 -30 0
6 -43 -13 0
-27 20 13 0
45 -1 7 0
-23 8 -15 0
-40 -36 -15 0
40 34 -33 0
-9 29 6 0
-16 11 27 0
7 -3 6 0
42 23 27 0
-4 -31 -1 0
4 2 -10 0
1 -4 33 0
-8 -39 38 0
-46 -33 30 0
-15 5 -47 0
23 37 20 0
24 19 8 0
-2 -4 33 0
-35 -10 45 0
-25 -7 29 0
-10 38 34 0
-33 -15 -1 0
-47 -20 -12 0
22 13 -20 0
-27 -5 26 0
-24 26 48 0
-37 24 -18 0
2 31 -36 0
-26 33 -30 0
47 -15 21 0
-11 35 -42 0
-16 47 17 0
6 22 46 0
-20 2 43 0
31 43 -32 0
18 31 40 0
-31 16 41 0
42 25 -11 0
-33 -47 -17 0
-47 -29 11 0
3 -29 -24 0
8 -41 -1 0
43 6 -21 0
-37 13 42 0
-20 37 -8 0
-23 44 -15 0
34 48 18 0
35 -23 20 0
-4 -16 -43 0
-5 -13 -7 0
17 6 -2 0
-37 -4 34 0
-34 38 37 0
36 -35 39 0
-12 5 19 0
-17 -6 -8 0
-18 -12 -48 0
-7 45 2 0
-46 26 33 0
21 -5 -38 0
-42 -20 -11 0
39 -19 40 0
-32 -36 -6 0
24 1 26 0
27 33 -23 0
-15 10 4 0
13 21 -27 0
35 -40 -38 0
-4 46 -31 0
-40 36 -28 0
-18 6 27 0
21 -37 -14 0
34 40 33 0
4 -14 27 0
-32 47 33 0
-20 -21 35 0
18 28 11 0
8 23 39 0
28 36 30 0
18 44 34 0
-47 -5 40 0
20 16 47 0
24 -15 44 0
-43 46 -10 0
-28 -34 -23 0
-48 -11 -14 0
1 21 -14 0
19 -30 -13 0
12 39 -15 0
45 -6 -46 0
-27 39 9 0
-16 -18 -7 0
31 44 32 0
-23 7 15 0
23 20 -30 0
48 44 43 0
36 48 -35 0
-3 -1 -41 0
26 -14 -25 0
14 39 -37 0
-18 -21 1 0
-21 5 -35 0
-19 -33 -43 0
-27 29 -12 0
10 -11 -8 0
29 -37 17 0
40 -33 -14 0
16 -17 38 0
30 39 45 0
-37 44 -3 0
21 -41 2 0
7 16 26 0
-32 1 -19 0
9 4 15 0
-24 -11 -43 0
37 29 -31 0
-42 -15 19 0
24 32 -29 0
-27 -10 16 0
24 -5 -3 0
40 11 -23 0
-39 41 13 0
21 -32 20 0
-13 29 -8 0
-48 1 30 0
-15 -28 -31 0
25 -5 8 0
41 6 43 0
-44 35 -40 0
35 25 19 0
14 -42 -41 0
-28 17 37 0
-15 -37 8 0
-39 17 38 0
11 -30 6 0
-5 -19 32 0
-19 -13 3 0
6 -28 -35 0
39 9 -5 0
-1 16 43 0
-21 4 -46 0
19 1 44 0
8 -32 44 0
-2 46 -21 0
1 15 5 0
34 -36 42 0
43 -6 -40 0
-10 -6 -15 0
40 -23 -32 0
48 22 -46 0
-45 -24 -41 0
22 -26 8 0
43 8 15 0
-33 -24 10 0
-48 -10 47 0
-28 39 -33 0
40 28 -16 0
29 45 44 0
45 24 -38 0
-28 -27 45 0
-30 24 35 0
-19 7 17 0
35 1 45 0
47 48 33 0
48 8 14 0
-35 -38 -20 0
11 45 -1 0
-29 -1 47 0
45 -17 -8 0
-27 -19 -7 0
7 28 -32 0
-5 19 -25 0
-1 44 -34 0
37 -26 -3 0
-4 46 14 0
26 -36 -13 0
