c Coffinhead hard-core n=48 seed=58 ratio=4.0
p cnf 48 192
11 43 -8 0
-15 39 -44 0
19 5 -22 0
-10 -14 6 0
12 -47 -40 0
7 -48 42 0
-20 -27 -28 0
14 7 9 0
23 -39 32 0
1 -40 15 0
-10 -31 15 0
17 25 6 0
40 9 35 0
-48 11 31 0
-18 31 46 0
-13 6 -17 0
32 48 -29 0
-37 44 13 0
-40 42 -16 0
15 31 -16 0
21 30 -23 0
-39 31 -4 0
-13 48 -22 0
-5 13 23 0
43 18 -40 0
-19 27 38 0
13 -47 -39 0
19 43 46 0
7 23 -29 0
-12 -14 18 0
31 43 9 0
-40 16 1 0
-46 -21 -19 0
18 10 -3 0
-29 28 -25 0
39 -8 23 0
46 43 -18 0
-27 44 38 0
26 -25 4 0
29 11 -10 0
-42 -41 -4 0
-22 17 -2 0
18 39 -40 0
-3 -9 43 0
3 -31 45 0
-7 35 -11 0
3 11 10 0
-46 33 -31 0
-6 -14 -7 0
-20 -43 -26 0
16 21 -3 0
-1 47 2 0
24 -13 -15 0
26 -44 15 0
12 36 43 0
-31 -39 -1 0
-47 17 31 0
-10 -20 5 0
30 16 2 0
9 -43 -27 0
-37 10 39 0
-14 39 -10 0
10 -32 38 0
48 9 27 0
5 48 -35 0
-23 44 14 0
12 -11 -32 0
25 -43 -13 0
4 29 -8 0
-23 42 -11 0
-45 29 34 0
8 4 39 0
25 17 -36 0
-10 -4 -7 0
8 19 23 0
14 12 41 0
44 -22 -45 0
-25 24 -11 0
-30 -15 19 0
-4 16 18 0
18 3 -4 0
-10 -20 -15 0
-7 17 -12 0
14 42 -18 0
29 40 20 0
11 -4 14 0
-37 -16 -44 0
-37 -19 -6 0
-37 28 -3 0
-23 35 -33 0
44 -36 46 0
13 -9 17 0
-8 -42 -22 0
15 34 17 0
1 2 -25 0
-33 43 27 0
-23 -25 45 0
22 13 11 0
4 -5 37 0
33 11 9 0
-33 35 -10 0
-29 25 -19 0
-5 -38 -39 0
-45 42 46 0
-43 34 -22 0
-6 -48 19 0
24 32 -13 0
-44 -11 -40 0
-16 -24 -6 0
32 16 33 0
-6 -17 2 0
33 48 35 0
-27 23 -35 0
25 -4 -18 0
42 -1 -19 0
21 47 25 0
-14 -41 -19 0
32 -11 14 0
2 30 -10 0
-34 -33 46 0
-30 7 -32 0
25 39 -18 0
27 -19 26 0
43 -30 1 0
-28 33 32 0
6 -19 -15 0
24 29 -39 0
-17 -40 44 0
-8 6 -35 0
47 -6 -14 0
-31 39 16 0
28 27 26 0
-4 -34 37 0
23 -5 -14 0
-4 10 2 0
2 -39 -17 0
45 16 -13 0
-43 -13 16 0
12 41 45 0
30 -10 -12 0
18 -13 -4 0
3 45 40 0
1 40 -28 0
30 44 -1 0
34 -6 28 0
-32 -16 -9 0
-38 -24 -16 0
-46 28 38 0
-9 23 47 0
-42 12 5 0
29 21 -12 0
-6 18 37 0
-29 -46 -48 0
43 -10 -19 0
-37 -27 -40 0
-31 -22 4 0
-38 -1 33 0
38 27 33 0
-47 -27 -40 0
-11 -20 -30 0
7 -14 -46 0
-15 -40 5 0
47 42 22 0
-47 8 20 0
-36 4 14 0
-23 7 46 0
-46 21 26 0
21 -9 -4 0
4 43 -24 0
-28 6 29 0
22 -1 23 0
45 5 35 0
-44 38 5 0
16 -29 -34 0
15 -39 37 0
24 -11 -33 0
-20 -44 5 0
-5 39 24 0
-16 -41 2 0
25 -36 45 0
-3 -13 22 0
45 -20 37 0
-36 41 -43 0
11 -38 31 0
12 -35 17 0
3 40 33 0
14 30 -21 0
40 -48 -17 0
31 -37 -38 0
21 45 39 0
20 6 -8 0
42 -34 14 0
