c Coffinhead hard-core n=48 seed=39 ratio=4.0
p cnf 48 192
-8 48 -41 0
-44 15 -3 0
-39 25 20 0
-18 5 -42 0
-46 26 -35 0
12 45 -27 0
25 6 -36 0
-8 39 35 0
-1 46 4 0
10 -28 -2 0
-39 -21 -30 0
43 -5 28 0
-7 32 12 0
-39 38 -16 0
30 -5 -28 0
4 20 6 0
30 -28 10 0
23 -12 41 0
30 -21 -39 0
24 29 -42 0
48 -21 -11 0
-13 10 26 0
24 -16 37 0
11 -41 32 0
-1 33 24 0
-41 32 -22 0
-47 18 -39 0
13 21 -48 0
3 34 -6 0
42 -10 -5 0
4 48 -39 0
-38 -46 32 0
-4 25 -36 0
20 7 14 0
41 -7 -36 0
32 -37 -2 0
-32 -8 -22 0
47 35 4 0
8 26 43 0
16 18 -45 0
-36 -34 -14 0
28 43 -32 0
41 2 39 0
-45 -18 26 0
12 34 33 0
-25 -35 38 0
-45 -2 9 0
22 13 -7 0
-7 19 47 0
-46 4 11 0
46 -29 -39 0
-9 14 42 0
-25 -42 -18 0
-48 26 4 0
-29 31 3 0
18 -35 7 0
17 -2 -24 0
-42 -39 -4 0
21 8 -30 0
15 5 -4 0
-42 -29 -21 0
40 32 -24 0
-14 -40 19 0
-4 45 3 0
28 -22 29 0
-28 45 12 0
11 37 43 0
44 -11 32 0
-5 38 -23 0
-7 16 -27 0
-20 30 33 0
-6 21 23 0
47 2 27 0
-29 16 15 0
-12 45 -8 0
-10 -43 -9 0
38 -37 47 0
19 -46 -36 0
-32 -16 -48 0
-37 47 -46 0
-35 48 19 0
-44 -12 34 0
17 -10 8 0
-37 25 -42 0
13 -35 -43 0
-45 27 36 0
44 9 -45 0
-33 -15 -31 0
-9 -34 -41 0
-30 1 48 0
-13 10 23 0
1 8 -16 0
25 46 35 0
6 -14 24 0
48 39 23 0
-1 33 -35 0
-15 45 30 0
16 -4 31 0
43 38 -30 0
23 -48 -24 0
-33 9 14 0
-25 45 9 0
26 34 -27 0
17 -15 5 0
26 8 -38 0
2 -12 -11 0
16 31 40 0
-29 4 -38 0
32 13 -39 0
-9 36 35 0
11 42 -22 0
-28 -15 12 0
-22 -21 -20 0
-33 -24 42 0
40 12 46 0
-32 -2 -15 0
-28 -30 -45 0
-8 -31 47 0
25 -28 13 0
16 6 -10 0
-15 40 47 0
31 -4 -10 0
-8 -23 11 0
-44 -5 -46 0
-21 -35 29 0
31 -13 15 0
43 -40 -21 0
-17 -19 43 0
-42 -41 5 0
-28 -16 19 0
46 -28 -1 0
27 16 -18 0
2 31 -14 0
-36 -25 12 0
38 10 -7 0
33 -35 24 0
29 -46 33 0
4 -3 24 0
-9 24 3 0
-13 -23 -17 0
15 5 33 0
-8 19 -48 0
-38 48 31 0
-4 -12 -41 0
-45 31 -41 0
-40 -7 -42 0
-2 4 -32 0
-1 -4 -18 0
13 -17 -39 0
45 19 -26 0
13 37 -9 0
37 -16 24 0
28 -26 21 0
18 -41 4 0
35 -16 -48 0
-11 -16 3 0
-14 -47 -5 0
-28 -11 -46 0
-12 33 -36 0
32 1 3 0
27 -39 14 0
11 -13 -25 0
-12 -13 28 0
-33 -10 -1 0
43 3 2 0
-39 -14 4 0
34 48 21 0
-14 21 43 0
10 -18 26 0
-23 27 17 0
46 4 29 0
-28 -46 -4 0
36 -46 -4 0
-30 -38 39 0
-2 -19 35 0
34 10 -44 0
-38 32 -44 0
16 30 -36 0
-19 13 42 0
46 -43 35 0
-1 -16 -27 0
23 43 35 0
37 2 -34 0
36 3 33 0
3 44 -29 0
21 39 -44 0
42 41 36 0
29 45 38 0
1 -10 -13 0
32 30 -25 0
45 -32 -23 0
-22 27 30 0
