c Coffinhead hard-core n=48 seed=20 ratio=4.0
p cnf 48 192
-37 21 -33 0
27 -47 41 0
24 -16 15 0
15 -24 -2 0
-30 -13 -21 0
31 26 -46 0
29 -45 -35 0
8 -43 -25 0
43 14 -44 0
16 23 -33 0
2 -26 24 0
9 14 -35 0
-45 -14 -10 0
-44 -32 26 0
-1 11 9 0
-25 38 -4 0
5 17 48 0
-4 -46 -26 0
-48 -40 25 0
6 47 -39 0
7 38 28 0
-30 -33 22 0
35 -27 44 0
22 8 -11 0
-23 27 -36 0
-44 -33 10 0
-7 10 -4 0
-12 36 1 0
40 35 -8 0
-33 -31 27 0
25 24 -9 0
-8 -36 -35 0
-13 36 48 0
17 40 -29 0
2 -20 37 0
-32 -30 38 0
2 -30 42 0
-24 5 -2 0
43 -18 -5 0
37 -9 -15 0
16 5 32 0
-46 -34 -2 0
25 29 37 0
26 -38 4 0
31 -6 40 0
21 -6 5 0
38 -9 25 0
40 -12 19 0
-21 31 26 0
-20 25 -3 0
19 40 -14 0
24 -21 18 0
45 1 -9 0
-2 -31 -48 0
10 5 -1 0
-14 44 1 0
33 -28 -5 0
-23 -10 20 0
5 -17 -19 0
-18 8 -2 0
-22 21 -30 0
47 -21 40 0
43 -14 -23 0
-25 -26 -38 0
-16 -20 4 0
-41 3 -21 0
21 -38 13 0
44 35 31 0
-1 48 -6 0
-41 28 -33 0
46 -22 -20 0
-29 10 24 0
-47 -17 1 0
23 45 -8 0
-7 -15 33 0
-38 14 -26 0
4 -19 -42 0
30 32 -12 0
10 6 -4 0
1 35 9 0
-13 -46 18 0
-31 -22 46 0
29 -37 -32 0
-15 17 30 0
-6 -14 -40 0
-21 -29 39 0
26 -15 -18 0
28 11 22 0
-28 -25 1 0
44 -24 42 0
-34 4 -21 0
-27 37 43 0
-43 28 -2 0
-26 -48 46 0
-18 -21 38 0
41 36 39 0
34 -6 -40 0
-4 19 3 0
-17 -15 -43 0
16 -5 -37 0
-25 40 8 0
-16 -42 -13 0
10 -19 -48 0
2 -39 12 0
-36 5 46 0
47 -9 -30 0
-35 25 18 0
41 42 22 0
25 -48 -43 0
37 -14 17 0
-43 28 6 0
-2 -48 26 0
-10 -35 -21 0
36 -43 -3 0
-22 -24 -11 0
-45 -11 46 0
1 12 13 0
47 -17 26 0
22 18 -41 0
-34 -41 8 0
-37 -9 -21 0
-48 -22 29 0
17 -2 41 0
12 -1 36 0
25 32 -28 0
-10 -6 48 0
46 -32 47 0
-45 -10 14 0
22 -26 25 0
-6 -25 -17 0
-32 7 36 0
47 33 -46 0
-7 -25 27 0
-31 -7 2 0
1 -42 23 0
-45 5 11 0
4 5 34 0
-21 -33 29 0
12 -42 29 0
30 46 -47 0
17 27 -39 0
-44 37 7 0
33 9 47 0
-42 40 39 0
-38 7 -34 0
38 24 -18 0
-27 42 -20 0
23 -33 -31 0
-20 -6 18 0
-27 -11 2 0
18 -4 -30 0
14 -24 6 0
-36 35 11 0
43 -36 32 0
-10 30 35 0
-37 -5 -41 0
-3 -33 -18 0
-16 44 -26 0
35 48 9 0
13 27 -34 0
28 -29 -35 0
18 25 16 0
25 13 19 0
4 17 16 0
-22 -29 2 0
-37 -5 -12 0
-41 24 -31 0
37 3 24 0
24 30 5 0
12 -18 -28 0
-28 34 -14 0
35 25 43 0
35 31 32 0
-31 27 12 0
-24 -38 -2 0
-15 -17 -18 0
35 -45 -18 0
42 14 -45 0
-18 36 -42 0
-2 47 22 0
-5 42 -3 0
-42 41 4 0
3 -28 -42 0
-23 -43 -13 0
31 -41 -36 0
13 -37 -44 0
38 -26 -5 0
-43 4 -7 0
47 -4 -27 0
-31 -9 34 0
17 -29 27 0
-7 2 35 0
