c Coffinhead hard-core n=48 seed=13 ratio=4.0
p cnf 48 192
46 6 11 0
-9 -15 -14 0
22 -26 -8 0
-31 4 -14 0
43 29 -1 0
-11 35 -41 0
8 -3 15 0
31 -4 40 0
-7 47 39 0
-6 36 -25 0
-4 9 -15 0
43 -44 12 0
25 -28 48 0
-11 36 -17 0
-28 -21 26 0
-12 34 38 0
11 37 -28 0
39 25 -15 0
-20 17 -32 0
5 -9 30 0
-10 -34 -22 0
-36 -45 -14 0
28 3 7 0
-2 16 -21 0
34 -1 -7 0
-1 -19 -9 0
2 34 -8 0
-12 -28 -15 0
3 -14 -28 0
6 -31 25 0
-30 7 -22 0
1 -42 -15 0
-1 2 47 0
-42 -29 32 0
29 -40 33 0
35 -41 -38 0
4 23 -31 0
44 38 42 0
39 9 8 0
27 -30 -25 0
-39 -20 -41 0
46 12 -31 0
-47 15 4 0
5 38 -21 0
-1 -37 31 0
-40 -35 3 0
-42 -21 -44 0
-10 23 -42 0
22 20 2 0
3 -13 24 0
-37 2 -46 0
12 9 -5 0
7 -43 -29 0
45 -23 40 0
-48 -25 -36 0
4 19 -14 0
10 21 19 0
5 -25 -27 0
-22 -19 -2 0
35 -29 9 0
6 -28 20 0
-8 -31 30 0
2 6 -35 0
20 38 -28 0
2 37 -25 0
29 -40 -34 0
-43 34 25 0
3 7 19 0
23 41 3 0
9 -44 5 0
24 -31 -20 0
-29 33 47 0
46 30 -38 0
15 24 31 0
-24 -34 18 0
-19 -13 38 0
33 -41 -34 0
-22 26 -2 0
31 -16 -19 0
-27 26 21 0
32 -36 -4 0
4 6 22 0
-31 4 -21 0
16 13 -23 0
24 15 30 0
-15 4 -36 0
-34 -16 -48 0
-34 23 24 0
43 48 16 0
9 44 -18 0
19 36 -28 0
-3 -48 41 0
-47 -45 -46 0
30 -4 13 0
-41 38 -44 0
-29 -27 -38 0
27 2 -41 0
-31 -19 -45 0
-32 -41 -44 0
-33 -17 -37 0
-29 -22 -41 0
-36 38 -16 0
30 23 33 0
-30 48 -6 0
-20 -13 -12 0
-22 34 -35 0
-2 32 -25 0
-16 1 -46 0
14 26 7 0
-18 24 -31 0
45 1 4 0
-43 -37 42 0
34 29 -24 0
-4 -41 35 0
24 3 21 0
47 -48 10 0
10 -3 39 0
-38 -35 41 0
-13 5 -31 0
11 12 18 0
-41 21 5 0
-38 12 -9 0
-23 13 -16 0
-6 15 -28 0
-40 44 -3 0
-19 22 26 0
24 33 -4 0
46 -21 14 0
-21 17 -28 0
27 -20 12 0
-29 -42 -40 0
9 -33 2 0
-2 -43 47 0
-13 23 -29 0
14 18 -22 0
-31 -12 -30 0
-25 -30 42 0
-40 26 -16 0
23 33 3 0
-23 40 -3 0
-16 -35 37 0
20 -6 -33 0
-30 -22 -42 0
38 35 -25 0
-27 -18 29 0
38 16 5 0
35 29 20 0
19 14 42 0
-2 37 -27 0
-39 -23 3 0
5 46 13 0
-7 -14 27 0
-5 3 -14 0
-41 5 -47 0
-18 -35 -12 0
28 -44 -14 0
40 -1 -33 0
-27 -11 -17 0
31 41 -14 0
-14 6 46 0
-19 22 -36 0
-44 28 -18 0
-39 10 47 0
29 -33 -30 0
-36 7 37 0
-25 4 -43 0
29 37 -40 0
-7 -43 24 0
-47 -22 -36 0
-17 -34 -29 0
-4 28 -20 0
16 -27 30 0
-28 14 -9 0
-1 39 29 0
33 -22 -36 0
8 27 -13 0
-28 26 -5 0
-27 -14 -42 0
16 -11 23 0
28 6 -40 0
-19 30 -23 0
43 34 44 0
-25 -9 6 0
-32 -26 -16 0
-35 15 -14 0
-38 -5 -20 0
-22 25 -46 0
-11 -38 -29 0
39 15 -10 0
-35 -34 -17 0
-25 -2 21 0
-30 -7 -33 0
