c Coffinhead hard-core n=48 seed=34 ratio=4.0
p cnf 48 192
35 -3 -41 0
-30 10 -43 0
-23 5 -47 0
42 45 -3 0
41 19 -47 0
-11 -33 -45 0
43 -2 -32 0
46 -7 -4 0
20 -25 48 0
1 41 43 0
13 28 -41 0
16 -39 11 0
-44 47 26 0
-44 -1 27 0
-14 23 -32 0
-11 42 37 0
-8 -4 -39 0
2 -14 -4 0
-45 -26 -39 0
12 27 43 0
17 43 41 0
1 -34 20 0
-8 -37 39 0
8 17 30 0
-42 27 -23 0
-48 -8 25 0
1 -28 12 0
-6 48 12 0
2 45 -34 0
7 -8 35 0
-8 19 -21 0
21 -1 -13 0
-25 -3 -17 0
4 -11 10 0
40 -21 45 0
22 -8 36 0
44 -28 -42 0
12 32 -40 0
-46 -2 40 0
13 -21 6 0
24 18 -21 0
-3 -34 -19 0
1 -32 -42 0
16 -11 -20 0
8 41 -26 0
-12 -8 -44 0
11 -32 7 0
37 15 43 0
-45 -10 -6 0
38 35 -6 0
39 48 33 0
-13 18 40 0
46 44 -42 0
24 -14 32 0
-30 -48 -21 0
-29 -18 35 0
37 5 -8 0
-41 48 -38 0
-3 -41 -35 0
25 -34 12 0
32 26 31 0
34 21 33 0
46 37 -36 0
11 10 9 0
-45 17 -46 0
29 44 -47 0
8 -23 26 0
33 -36 -2 0
24 -39 42 0
-32 -25 6 0
24 37 -32 0
36 -40 28 0
21 -19 23 0
14 5 -18 0
-15 39 -26 0
-35 10 -20 0
-23 -13 34 0
-13 -37 48 0
-25 -1 2 0
15 37 25 0
-45 36 15 0
17 -32 -27 0
26 -40 44 0
-26 2 -7 0
46 29 -21 0
-22 -44 -19 0
-8 -28 41 0
-26 -21 -44 0
5 -23 -47 0
-40 42 -36 0
-46 -36 -30 0
6 -9 -4 0
-10 17 -27 0
-28 5 -41 0
-27 -6 -47 0
-12 23 6 0
-4 -26 37 0
31 -5 4 0
24 1 22 0
-40 16 -24 0
31 -38 44 0
34 -11 -43 0
5 -36 -37 0
2 -20 37 0
14 21 30 0
44 -40 11 0
-22 30 19 0
33 47 -27 0
-1 12 -15 0
-4 -23 -48 0
-22 -4 7 0
38 15 -37 0
-28 -40 33 0
24 -18 -42 0
18 -13 5 0
-13 -34 41 0
-23 19 18 0
36 -7 -41 0
-46 -39 -7 0
-1 -4 30 0
43 5 36 0
-17 45 -47 0
-8 4 32 0
24 13 28 0
45 21 6 0
-4 35 -41 0
31 -41 13 0
20 14 -3 0
-33 15 32 0
19 -7 -22 0
-21 39 -19 0
-28 9 37 0
-23 1 20 0
15 5 -44 0
22 -30 -37 0
-4 -48 -20 0
27 44 -1 0
33 39 7 0
-26 -6 3 0
5 44 -14 0
-5 -36 17 0
13 -40 6 0
-19 -4 -12 0
6 38 -41 0
-6 37 46 0
25 17 36 0
-45 9 1 0
42 18 -4 0
-39 17 -36 0
25 -13 40 0
-42 -10 17 0
-14 -1 42 0
43 19 -10 0
43 35 39 0
-3 -39 38 0
-47 -11 6 0
-40 -15 -8 0
-17 -2 -43 0
4 18 -9 0
11 22 28 0
-29 32 -33 0
-27 42 -34 0
24 -12 -47 0
8 31 6 0
-26 -46 31 0
-33 24 -42 0
-43 -33 1 0
-17 13 43 0
-19 -7 45 0
-13 -43 -17 0
12 -44 -10 0
39 -34 18 0
-6 13 -22 0
12 -19 -4 0
-46 24 -17 0
-48 41 24 0
36 23 19 0
44 -24 -35 0
23 -18 -47 0
28 22 -16 0
-17 19 36 0
27 48 -31 0
-35 33 -10 0
4 -48 -5 0
-20 24 18 0
29 21 -24 0
-3 -6 21 0
-45 -43 35 0
-12 30 -20 0
27 14 35 0
12 -15 22 0
14 -10 26 0
