c Coffinhead hard-core n=48 seed=24 ratio=4.0
p cnf 48 192
-25 9 -48 0
-4 -48 -18 0
5 3 -29 0
16 -5 31 0
46 -42 -47 0
1 -4 20 0
-26 38 -40 0
-35 -13 30 0
24 -1 -17 0
-47 41 -36 0
27 10 -26 0
42 -5 10 0
-35 -6 23 0
-47 -21 -6 0
-7 -9 -13 0
-40 -47 21 0
25 45 -43 0
6 7 48 0
-12 33 -42 0
-6 -5 13 0
-30 4 31 0
35 42 20 0
18 -22 8 0
-20 31 39 0
10 31 37 0
29 26 -1 0
23 31 36 0
8 31 -47 0
30 -14 -31 0
33 -34 -29 0
42 -12 -19 0
6 45 -3 0
-45 -19 13 0
34 12 30 0
-20 24 -29 0
33 -37 47 0
-4 33 -2 0
-13 -8 48 0
-9 -13 -3 0
-28 -44 30 0
46 7 31 0
26 41 17 0
14 -24 -12 0
-43 -27 -36 0
-36 35 -27 0
31 -25 11 0
20 27 -2 0
-23 6 -1 0
11 -13 -8 0
-34 29 11 0
-3 -48 27 0
-13 -47 3 0
16 -25 -9 0
1 -5 -12 0
-40 -48 33 0
-9 -26 -30 0
29 26 -27 0
26 10 16 0
12 -28 15 0
45 46 -20 0
-7 -13 -10 0
13 -6 33 0
-24 10 31 0
-25 -21 34 0
47 -39 -16 0
5 -22 -11 0
-29 -18 25 0
27 -21 -39 0
-10 6 31 0
22 8 -18 0
-35 -22 -9 0
20 -37 -19 0
4 -16 42 0
16 11 -6 0
15 18 -24 0
-45 9 8 0
10 -41 -33 0
-27 -35 3 0
39 -44 9 0
36 19 -38 0
-25 15 -44 0
29 27 36 0
19 -41 -15 0
43 -48 -42 0
23 -30 18 0
-2 43 -32 0
40 -19 -17 0
-10 18 -35 0
38 11 20 0
22 -29 -28 0
-1 -41 34 0
11 22 4 0
-45 -37 29 0
-26 2 32 0
38 -15 -32 0
10 -16 13 0
-19 2 -32 0
-30 -20 2 0
36 -16 30 0
-23 -6 -10 0
25 -7 19 0
39 -8 -34 0
8 -32 -30 0
-33 47 -45 0
-18 24 -7 0
-36 -1 -48 0
34 -35 -31 0
47 -24 19 0
46 37 29 0
43 20 36 0
38 -16 37 0
5 38 11 0
-18 -4 2 0
35 -33 34 0
-24 39 7 0
26 35 37 0
18 -14 24 0
11 26 8 0
4 44 12 0
-20 27 25 0
38 -34 24 0
-31 30 -4 0
10 41 -18 0
-25 30 23 0
-12 34 17 0
-37 -44 32 0
-36 18 -8 0
-6 14 5 0
5 -10 -29 0
-42 -44 -40 0
5 -44 26 0
-6 22 -45 0
14 26 28 0
16 -40 10 0
28 5 -47 0
-28 23 -25 0
-36 27 41 0
-23 1 -15 0
28 -25 -7 0
-37 -48 3 0
29 16 38 0
-42 38 20 0
29 47 -9 0
35 15 12 0
41 39 -35 0
25 -6 -32 0
-23 19 13 0
-21 2 -33 0
-46 13 -23 0
-12 -8 -37 0
47 13 -40 0
-12 30 -36 0
11 -26 34 0
-5 -34 -25 0
41 -15 -11 0
48 -25 -16 0
47 45 -26 0
47 -31 32 0
36 -16 17 0
7 39 43 0
3 -46 -5 0
15 22 -26 0
38 36 39 0
-17 -45 9 0
4 -48 31 0
-32 22 -28 0
21 37 31 0
-40 26 34 0
45 44 -40 0
16 29 -15 0
-12 16 -27 0
22 -36 -47 0
-26 2 -5 0
-47 -19 4 0
2 21 25 0
35 24 17 0
46 24 16 0
-10 16 -36 0
20 24 -15 0
21 -40 -31 0
-15 -3 14 0
31 10 -20 0
25 20 -33 0
29 31 -8 0
23 -26 20 0
9 -26 40 0
-14 -1 13 0
-12 -11 -32 0
41 7 1 0
-34 10 -17 0
41 18 -37 0
25 -36 -10 0
