c Coffinhead hard-core n=48 seed=11 ratio=4.0
p cnf 48 192
-28 36 46 0
25 27 45 0
16 8 -32 0
-28 21 12 0
-42 22 13 0
-46 32 20 0
-10 20 -40 0
26 34 6 0
43 -29 -24 0
-16 -28 8 0
-18 -4 2 0
-34 33 40 0
23 35 -42 0
39 -8 -15 0
21 44 -1 0
19 -26 -28 0
1 48 -21 0
-40 41 -6 0
14 5 -7 0
-18 8 37 0
-31 -36 -5 0
25 46 -34 0
-44 5 27 0
19 -16 -15 0
-22 7 19 0
35 40 -36 0
38 24 27 0
47 -34 28 0
27 32 -10 0
-33 -12 14 0
-22 11 5 0
-33 3 -45 0
36 22 5 0
-22 14 13 0
19 -29 -11 0
-21 1 31 0
42 -35 -31 0
-34 -31 3 0
47 -30 -40 0
-40 14 28 0
-32 20 -45 0
21 -25 4 0
28 -44 47 0
22 10 38 0
9 17 2 0
4 42 -47 0
16 -36 -45 0
22 12 -46 0
15 -14 20 0
20 3 -1 0
-5 -21 9 0
-43 16 17 0
30 -23 31 0
15 36 25 0
-9 12 13 0
-21 27 42 0
-44 -45 27 0
-24 34 -18 0
-8 -31 -11 0
43 33 -12 0
27 -42 -32 0
17 14 -44 0
-33 46 -8 0
4 30 31 0
-46 -2 13 0
10 34 14 0
45 42 -47 0
-29 20 9 0
18 15 -16 0
43 48 38 0
24 2 -47 0
41 -10 11 0
-44 -24 -3 0
2 13 -33 0
-30 -2 -1 0
-20 -45 -24 0
-7 29 -25 0
31 -21 -34 0
29 30 -10 0
-44 -35 -37 0
39 -9 -38 0
9 -40 19 0
-45 25 -23 0
4 21 -15 0
23 -2 -21 0
-18 -48 38 0
30 5 4 0
-31 -44 36 0
20 33 -34 0
-21 -2 17 0
11 16 -12 0
-47 -26 34 0
30 13 41 0
-33 -7 -32 0
15 -48 -43 0
16 12 -29 0
3 21 10 0
-20 9 12 0
3 -5 -16 0
43 40 -9 0
-20 -26 41 0
46 -28 20 0
10 5 -7 0
14 6 -43 0
4 -29 -35 0
-39 -47 37 0
-29 34 18 0
-31 -29 -37 0
-32 -34 29 0
30 -12 -44 0
-3 -40 -25 0
-34 -35 -8 0
7 -47 -22 0
-5 9 39 0
-27 -44 -15 0
23 -11 14 0
-6 -10 33 0
19 -35 38 0
1 -27 -44 0
6 -35 -23 0
-42 -38 -32 0
46 -42 -12 0
5 11 -4 0
-28 -46 -19 0
-36 5 6 0
-11 -28 22 0
35 4 47 0
42 -30 19 0
-43 47 25 0
-48 -25 12 0
-31 8 -5 0
-9 -47 27 0
-38 43 2 0
36 41 -37 0
-30 7 -8 0
40 -12 -37 0
-29 9 36 0
48 -29 -16 0
18 10 14 0
28 -43 -17 0
-17 13 7 0
41 18 1 0
35 -12 -23 0
-20 43 -45 0
-35 6 21 0
-15 -19 45 0
7 -26 -15 0
3 -27 29 0
-14 -3 17 0
1 -18 -46 0
42 15 -23 0
29 22 -23 0
36 14 28 0
-10 8 -37 0
-8 32 10 0
17 -5 8 0
-14 30 -46 0
-22 -27 -32 0
-39 33 -9 0
-3 -37 19 0
43 35 -40 0
5 -33 10 0
10 32 41 0
-6 47 -16 0
-26 24 -22 0
18 8 -19 0
19 16 -34 0
30 20 -12 0
-38 40 23 0
46 -30 7 0
29 -39 -22 0
45 -32 22 0
41 15 -30 0
8 -42 29 0
-31 15 -11 0
-25 -30 17 0
-7 -47 12 0
-8 5 34 0
43 -6 -1 0
-14 -8 31 0
41 -17 -39 0
-24 16 42 0
-18 45 32 0
-25 31 -7 0
-11 -14 4 0
42 -34 -6 0
37 45 -10 0
47 23 12 0
-15 -8 42 0
-19 -9 10 0
-26 -3 11 0
-47 -20 19 0
