c Coffinhead hard-core n=50 seed=31 ratio=4.0
p cnf 50 200
-48 -18 46 0
-41 17 -23 0
-33 15 -30 0
-7 -8 25 0
3 37 -22 0
-14 -50 1 0
-48 41 8 0
-28 14 40 0
18 17 2 0
-24 -39 -50 0
-49 -41 13 0
-20 33 9 0
20 -18 41 0
-48 11 8 0
-35 -26 38 0
-3 -37 18 0
29 -22 27 0
18 -16 31 0
22 -37 20 0
-36 -1 -8 0
44 -50 48 0
-4 44 -37 0
-29 -15 23 0
13 41 -34 0
-35 10 14 0
8 1 -13 0
-16 -33 27 0
24 -18 42 0
-17 -13 38 0
-27 9 -13 0
-4 22 -30 0
-3 -22 -38 0
19 -47 -11 0
48 -39 37 0
27 -11 26 0
-34 -42 2 0
29 11 27 0
-32 -39 -28 0
13 -35 24 0
-21 47 3 0
-1 -40 -26 0
-41 -14 -9 0
-1 -26 -46 0
26 5 -29 0
-10 -15 43 0
-26 35 -24 0
21 13 -36 0
48 8 31 0
-14 -12 41 0
12 13 5 0
10 12 5 0
34 45 37 0
50 3 5 0
41 21 29 0
-18 9 6 0
38 -10 19 0
-3 -9 -37 0
-18 -17 43 0
2 -49 39 0
43 9 -48 0
-25 21 -22 0
-13 -33 17 0
9 -3 42 0
-22 -31 -36 0
14 19 -40 0
-29 -34 12 0
-34 -45 -44 0
47 3 -41 0
-14 -3 -11 0
20 4 -6 0
-35 37 15 0
14 46 -48 0
-20 35 12 0
18 25 5 0
45 -17 2 0
-43 2 -47 0
34 -42 -8 0
-26 28 48 0
26 27 36 0
-12 50 -34 0
11 7 -49 0
-9 3 49 0
-22 20 -45 0
-6 -24 9 0
8 25 36 0
-37 5 -44 0
28 -16 42 0
11 19 -6 0
13 36 25 0
-47 5 -22 0
1 -13 30 0
18 -34 -30 0
34 -3 -2 0
-15 -45 2 0
-17 20 16 0
25 -20 -7 0
-3 7 -29 0
21 25 -19 0
21 22 -19 0
-14 -44 13 0
-46 50 13 0
12 37 -36 0
-39 -14 -22 0
48 9 -3 0
2 -38 -13 0
45 -39 -2 0
-1 -27 47 0
25 -3 46 0
-28 8 -10 0
-46 -34 28 0
-29 46 32 0
15 37 6 0
40 -50 41 0
39 -31 -35 0
-45 -19 -3 0
-28 -23 -45 0
-10 -33 -7 0
-25 32 -9 0
36 -25 28 0
49 -50 -44 0
-48 -39 -16 0
32 6 14 0
-3 13 27 0
-28 -11 36 0
-35 20 23 0
-47 -34 21 0
45 -27 15 0
23 -11 -48 0
17 -36 21 0
-43 22 -7 0
20 24 -26 0
36 37 -10 0
-13 34 45 0
26 22 23 0
14 42 31 0
8 -49 -34 0
6 9 2 0
38 2 18 0
-14 -2 13 0
-16 -39 17 0
-21 35 3 0
-10 -1 -42 0
4 -27 -1 0
12 -36 13 0
-29 -40 21 0
27 -12 46 0
-14 35 -24 0
-15 25 23 0
-45 12 -9 0
4 -33 -12 0
-15 -42 46 0
-23 11 -40 0
-33 -45 -3 0
-50 -40 5 0
-30 -39 -42 0
-29 4 -44 0
-32 15 50 0
46 1 -16 0
-42 -39 -23 0
24 -1 27 0
15 -20 -46 0
19 2 -21 0
-16 -26 41 0
45 -38 -2 0
-45 -2 41 0
-14 -18 -23 0
18 -30 -43 0
-49 37 -26 0
45 -1 -18 0
-48 16 -21 0
37 -42 -41 0
33 42 43 0
-50 -49 34 0
24 -21 9 0
-18 12 -45 0
-16 -25 -45 0
31 -50 6 0
-9 30 -17 0
2 46 -41 0
-39 42 -19 0
19 38 -27 0
36 -12 -3 0
31 -33 23 0
40 -8 -46 0
-5 -38 -13 0
-14 30 22 0
15 2 32 0
-28 19 -6 0
-7 10 40 0
12 -28 -14 0
-37 -18 -44 0
-7 24 49 0
-9 -42 15 0
-13 -16 -17 0
-38 9 -47 0
-7 19 40 0
35 -22 -7 0
47 -18 -48 0
10 17 47 0
6 29 14 0
