c Coffinhead hard-core n=50 seed=48 ratio=4.0
p cnf 50 200
-29 39 -40 0
-26 -34 -20 0
50 46 -39 0
46 -10 -8 0
45 -35 7 0
45 -28 -44 0
6 43 42 0
3 -42 8 0
31 19 50 0
-41 -48 -47 0
35 49 6 0
-25 48 -31 0
-30 -48 -5 0
49 -30 -40 0
-21 10 -46 0
-16 -37 7 0
-32 49 34 0
41 7 46 0
13 44 23 0
-15 17 4 0
36 -20 42 0
-28 -27 34 0
-45 37 -41 0
-13 -47 31 0
-5 24 37 0
-28 -23 -27 0
18 -3 -32 0
-34 19 -33 0
-42 -19 -27 0
19 48 8 0
-37 -23 46 0
11 7 41 0
-39 13 15 0
4 31 46 0
-3 32 -9 0
28 -34 11 0
-12 -11 -47 0
-50 -31 47 0
46 5 -10 0
4 -26 -2 0
7 42 -22 0
33 -44 -39 0
-41 -23 -29 0
-18 -31 -16 0
-37 5 -24 0
18 1 -44 0
-32 -16 41 0
-33 45 -32 0
-8 34 -45 0
-48 -1 -10 0
-23 -42 24 0
-26 14 43 0
33 13 23 0
17 31 26 0
-48 -12 20 0
-13 -18 -24 0
2 -1 -15 0
18 -2 10 0
23 16 -44 0
-27 -39 -46 0
-24 43 -20 0
22 8 31 0
-24 -38 -28 0
-25 45 -29 0
45 -12 -9 0
-10 -9 36 0
-1 -6 46 0
-8 23 -41 0
4 -46 13 0
-46 40 -30 0
5 -17 41 0
-27 -9 -13 0
-49 -28 1 0
-15 30 37 0
-2 -27 -21 0
-10 -37 46 0
21 -19 -11 0
14 -24 46 0
18 -12 -41 0
24 48 -5 0
6 -30 -48 0
-31 35 47 0
-28 -2 14 0
-6 -49 -4 0
1 7 -29 0
-2 14 -3 0
-46 -49 3 0
47 -28 -34 0
20 -23 9 0
-48 -31 -26 0
-34 44 -17 0
-27 -50 6 0
17 14 -11 0
20 -44 41 0
-27 -24 -3 0
-27 -16 -30 0
-6 9 47 0
7 -14 35 0
-42 -14 -3 0
26 -20 -48 0
-32 -34 35 0
41 14 -37 0
-39 19 22 0
35 47 -19 0
32 -46 -6 0
-48 45 -16 0
12 -30 4 0
25 48 37 0
-29 -36 -46 0
-41 -43 -38 0
-5 -48 15 0
3 10 30 0
39 -27 37 0
36 7 47 0
-1 -46 6 0
-33 35 -11 0
7 20 -4 0
13 -20 31 0
-18 -3 -32 0
20 44 -43 0
-50 36 -10 0
1 -30 38 0
15 -13 -12 0
-7 20 -10 0
33 -22 -8 0
-38 -4 6 0
-8 30 48 0
9 -12 -32 0
20 -10 13 0
-9 -4 -10 0
-10 39 -40 0
-4 -6 -22 0
2 46 31 0
-20 -16 15 0
8 34 41 0
-19 41 -34 0
14 35 -28 0
11 28 23 0
46 -35 -13 0
6 39 -45 0
-40 17 25 0
-31 17 15 0
28 32 -11 0
-18 40 -27 0
-31 -30 4 0
-11 45 -43 0
-13 -36 -30 0
8 43 17 0
33 -25 3 0
23 -12 -8 0
7 -12 -3 0
22 -1 -30 0
29 -37 -46 0
16 39 42 0
-12 -48 -18 0
-32 9 -5 0
-32 19 41 0
7 -29 -22 0
20 19 -50 0
23 48 43 0
-50 -26 -33 0
-47 -14 29 0
-37 -4 -27 0
-39 35 -20 0
26 1 47 0
13 -11 -27 0
36 -46 20 0
-46 6 12 0
25 41 2 0
2 -10 -47 0
-29 -49 2 0
-17 25 27 0
15 -2 -35 0
10 34 32 0
7 33 2 0
-21 6 16 0
-35 -15 -8 0
7 -10 -6 0
29 24 27 0
5 -25 -11 0
36 50 -39 0
27 -45 -21 0
-31 27 28 0
21 32 -24 0
8 -3 24 0
44 41 -23 0
49 12 -45 0
26 -21 -19 0
19 8 -28 0
-30 -14 -40 0
-42 31 -1 0
21 -19 -29 0
27 3 11 0
-50 -24 -10 0
9 22 17 0
38 -40 6 0
42 -14 31 0
-42 -27 1 0
46 13 24 0
50 -19 -16 0
