c Coffinhead hard-core n=50 seed=21 ratio=4.0
p cnf 50 200
38 -2 24 0
-20 -6 -45 0
-38 42 -22 0
40 50 46 0
-50 34 -19 0
7 22 34 0
41 32 42 0
41 -48 -23 0
6 15 39 0
-32 -36 -12 0
18 -42 -50 0
-40 -10 -11 0
37 -21 -8 0
-33 8 -43 0
3 -45 25 0
11 45 24 0
-37 -45 21 0
9 -47 49 0
-36 -13 -17 0
43 -46 29 0
-12 42 -24 0
-35 5 -43 0
-14 47 11 0
-28 -14 -48 0
16 41 -12 0
-24 -6 34 0
22 2 41 0
-48 -36 -34 0
-28 -38 -42 0
43 -22 16 0
12 -19 -3 0
-18 27 21 0
-10 -14 -42 0
42 -21 -49 0
39 -23 22 0
-35 43 31 0
-23 -30 40 0
24 -40 15 0
-46 -15 17 0
30 33 -4 0
-4 -26 47 0
48 -20 -38 0
12 35 -19 0
-33 38 -3 0
-17 -9 39 0
-25 -34 -45 0
-36 -3 -39 0
-16 41 35 0
39 -31 4 0
6 -22 38 0
-1 -17 -26 0
43 -15 10 0
-47 -40 3 0
20 -8 47 0
-36 -5 42 0
34 -43 -22 0
9 -3 -47 0
16 39 43 0
27 16 15 0
-46 -27 6 0
-29 49 28 0
-4 13 20 0
-39 30 20 0
-6 1 -9 0
4 26 -7 0
-50 -16 23 0
48 37 1 0
38 -39 -45 0
3 41 6 0
-8 46 -42 0
-1 -12 29 0
-28 -5 17 0
38 42 -19 0
-39 -32 -9 0
-33 -3 36 0
-43 -26 -45 0
-44 -36 26 0
-28 -12 4 0
-42 -35 22 0
-46 9 -47 0
-45 25 -42 0
16 19 -32 0
-42 40 -50 0
-9 10 11 0
-5 -4 -7 0
8 -16 1 0
-15 12 -16 0
27 -43 17 0
43 28 -11 0
-45 -25 -11 0
-36 -2 44 0
-31 -33 -50 0
49 24 20 0
1 8 20 0
26 -16 -47 0
-34 49 2 0
26 21 42 0
-5 50 -24 0
18 -36 -20 0
24 -18 20 0
-23 48 -24 0
-15 27 -30 0
-49 -17 -19 0
-9 34 29 0
31 35 49 0
42 -4 43 0
-14 -48 49 0
-27 48 -15 0
33 34 -15 0
-25 32 5 0
19 47 -33 0
-12 15 -48 0
-3 -47 -15 0
-19 14 -35 0
4 -6 10 0
-23 2 -49 0
-42 31 -26 0
-21 44 -11 0
22 41 46 0
-15 -17 -20 0
-18 39 -43 0
-5 -35 31 0
28 -48 14 0
34 46 -11 0
16 29 11 0
8 49 -28 0
6 -17 -45 0
17 29 -6 0
-28 24 35 0
31 36 -26 0
47 -12 -39 0
8 10 45 0
15 -21 -14 0
12 -18 42 0
15 -33 11 0
13 -4 50 0
19 21 6 0
-44 -43 42 0
35 -34 32 0
-43 22 41 0
-20 -26 -42 0
-17 49 9 0
45 -25 -17 0
23 13 -12 0
18 -21 8 0
17 36 -40 0
-5 41 42 0
16 25 -8 0
-35 -29 49 0
-49 -36 -21 0
6 2 26 0
8 -14 27 0
-30 -38 -44 0
6 -32 46 0
-13 47 -10 0
10 1 -34 0
9 17 27 0
-28 7 -1 0
-36 -10 -35 0
18 -34 -48 0
11 -32 -1 0
-32 -10 27 0
-10 -41 -4 0
-31 -1 -4 0
4 -50 28 0
-38 -33 15 0
-38 7 -5 0
-42 32 -28 0
30 -49 39 0
36 22 -37 0
9 31 -44 0
-46 -12 7 0
19 -11 8 0
-41 -8 -48 0
-39 -48 -13 0
2 36 -32 0
-39 45 42 0
-18 46 -42 0
-19 34 -18 0
48 -10 -49 0
-3 38 -11 0
-18 -24 -33 0
-48 5 -23 0
-32 4 34 0
-36 -43 -47 0
35 25 -19 0
10 14 -39 0
-12 -49 29 0
-20 45 -34 0
-20 33 -44 0
47 6 45 0
-29 36 -17 0
22 21 -25 0
18 -42 10 0
-26 -13 46 0
13 11 -26 0
-27 -19 -39 0
-3 22 37 0
28 -36 31 0
-25 -20 26 0
