c Coffinhead hard-core n=50 seed=42 ratio=4.0
p cnf 50 200
25 -5 13 0
-26 37 -8 0
34 16 23 0
-42 -20 -7 0
46 -6 -47 0
32 -47 -43 0
-2 38 26 0
26 48 -20 0
-33 -38 -16 0
37 11 -32 0
-18 27 -48 0
-9 -44 -31 0
37 10 -43 0
26 12 37 0
32 8 43 0
23 -30 -49 0
41 45 27 0
34 36 -45 0
-9 4 40 0
-9 41 -49 0
37 -30 7 0
-43 -18 -42 0
31 -29 26 0
-30 -39 -5 0
-21 3 46 0
-49 2 9 0
40 41 -10 0
50 41 8 0
34 1 37 0
20 44 -22 0
-2 35 13 0
-47 -18 32 0
41 -5 -45 0
50 -4 -46 0
22 49 28 0
34 -16 25 0
14 -36 -3 0
8 41 -36 0
-48 -26 -41 0
-23 44 -14 0
-17 3 -49 0
-36 -13 -40 0
-33 -7 -25 0
4 -32 14 0
14 -34 48 0
-47 21 11 0
-49 -23 18 0
-48 34 28 0
48 -6 -17 0
-6 -27 47 0
-37 -20 18 0
1 14 -50 0
-37 -38 42 0
-14 -37 47 0
-15 18 -28 0
-28 -20 -46 0
-15 28 50 0
-26 -25 -17 0
1 31 2 0
23 -25 9 0
-27 40 -22 0
48 -5 15 0
1 -32 -44 0
35 8 -34 0
31 -13 39 0
39 -5 44 0
-13 24 50 0
45 -42 39 0
-10 1 -12 0
40 42 10 0
-43 20 26 0
-34 -9 -27 0
-50 -11 -20 0
-3 -39 38 0
49 -7 16 0
-39 -19 27 0
3 -42 1 0
2 -32 -40 0
13 -44 11 0
-25 5 17 0
6 -42 26 0
-1 39 41 0
1 -7 -49 0
-10 -28 48 0
26 38 48 0
-10 15 -4 0
-16 -38 -3 0
13 -1 28 0
-22 -8 -20 0
13 47 50 0
-50 46 25 0
49 36 -2 0
-2 41 45 0
-46 3 32 0
26 -33 38 0
21 45 -4 0
16 -22 40 0
18 -40 -17 0
-14 33 18 0
-41 26 1 0
-40 -45 33 0
17 -40 31 0
-38 -50 -25 0
50 -19 -28 0
40 19 15 0
-10 30 11 0
25 -19 14 0
24 -16 27 0
29 -10 3 0
-50 8 6 0
10 -27 -6 0
-22 38 -23 0
38 -34 -31 0
-29 50 -35 0
-20 -14 -32 0
-35 15 10 0
-46 28 -32 0
-50 47 25 0
-15 -36 -41 0
-5 -15 -16 0
9 -14 48 0
-10 -8 -50 0
32 -20 28 0
26 -10 -35 0
50 -15 49 0
-40 4 -34 0
-5 -25 46 0
-33 7 10 0
-6 11 -45 0
-37 -27 -24 0
-2 -20 -47 0
-44 -34 -3 0
45 -4 19 0
3 -14 -25 0
-19 -1 18 0
41 35 -20 0
24 16 45 0
34 -43 -44 0
-14 27 -30 0
23 46 13 0
-23 -34 7 0
-41 -45 -6 0
-1 -27 2 0
3 10 -43 0
25 -17 43 0
-4 -36 18 0
20 -31 10 0
30 -38 8 0
35 -2 -7 0
-37 -31 -35 0
47 -19 7 0
-26 -25 -6 0
-8 35 -2 0
26 6 -5 0
7 18 -22 0
-2 7 -27 0
-42 34 -37 0
37 -3 -24 0
-30 23 8 0
-27 21 1 0
-23 -12 -15 0
25 -43 -22 0
42 -47 37 0
15 45 -20 0
-18 32 -31 0
13 -45 -3 0
47 24 -16 0
-5 -3 -35 0
31 46 24 0
-36 -44 11 0
25 -17 -36 0
-27 36 -28 0
13 42 -3 0
-45 -9 -42 0
1 30 3 0
18 45 -35 0
-28 -6 21 0
-19 -25 40 0
-48 8 -16 0
-37 12 45 0
50 -9 -16 0
18 -42 -26 0
46 49 -4 0
-40 13 -12 0
41 -39 27 0
-12 11 45 0
-20 43 -5 0
-14 26 -27 0
43 6 46 0
48 -41 -1 0
12 49 -25 0
42 45 -2 0
30 17 -44 0
34 4 25 0
-38 -33 -11 0
-47 -49 22 0
-5 -31 -7 0
37 -34 38 0
-21 -42 -49 0
36 -21 37 0
