c Coffinhead hard-core n=50 seed=8 ratio=4.0
p cnf 50 200
-39 -15 35 0
-43 -4 -20 0
4 38 14 0
48 -17 -44 0
4 -47 -22 0
24 -45 -47 0
-26 -21 -24 0
-38 17 -8 0
-28 29 48 0
36 -10 -41 0
49 -9 -11 0
-6 -45 43 0
17 22 -40 0
39 -32 -24 0
1 12 -11 0
4 22 1 0
-25 -41 22 0
-39 -17 -40 0
39 32 47 0
36 28 -19 0
26 -49 -7 0
17 -49 25 0
6 -43 -31 0
-27 5 2 0
-44 37 42 0
-27 42 44 0
-42 -47 -29 0
50 7 -43 0
27 -44 3 0
-19 24 27 0
-18 12 25 0
-34 -26 48 0
31 -25 -49 0
9 -7 -38 0
-21 38 -13 0
-49 37 -19 0
-25 45 -33 0
45 -27 -9 0
-13 29 -4 0
18 -14 16 0
42 -41 35 0
23 27 -10 0
6 -3 -16 0
-9 -36 5 0
-19 48 21 0
-50 30 10 0
25 -30 -4 0
46 -50 11 0
-30 15 -13 0
-22 38 -48 0
-46 6 -35 0
-18 -43 36 0
-20 -12 -4 0
10 39 37 0
-43 24 15 0
-9 27 -30 0
22 -25 38 0
23 32 -43 0
-36 32 -38 0
41 45 3 0
-14 47 -18 0
-47 -16 13 0
45 -44 -43 0
-37 7 -22 0
-26 22 -4 0
17 50 48 0
48 -5 -17 0
-5 6 3 0
11 13 25 0
22 -21 18 0
-50 41 19 0
-2 18 36 0
-13 34 32 0
21 33 17 0
19 41 -3 0
10 12 11 0
-30 -18 14 0
-4 29 13 0
-12 -50 45 0
-17 -37 48 0
39 -22 3 0
30 13 -20 0
-16 22 -19 0
47 14 -13 0
-44 50 -33 0
4 -44 -45 0
-37 41 22 0
-11 13 40 0
10 35 -14 0
37 23 13 0
24 -43 39 0
34 33 16 0
17 -28 13 0
39 26 38 0
-5 25 -15 0
22 -14 -11 0
49 14 -16 0
8 -17 26 0
-35 50 47 0
33 2 10 0
7 30 44 0
-18 32 13 0
29 5 32 0
2 34 -14 0
-29 27 7 0
31 -19 41 0
-6 -33 29 0
-40 8 -30 0
-28 19 -11 0
15 -47 3 0
9 -44 40 0
6 -44 33 0
-46 -26 9 0
-20 -22 -11 0
-28 -18 -37 0
34 -39 26 0
24 21 -41 0
-15 -22 -25 0
1 -11 -30 0
45 35 -2 0
-11 -24 -7 0
14 -41 26 0
-32 -13 -44 0
-32 -45 31 0
-47 21 -28 0
-2 31 -4 0
-27 31 -12 0
35 -13 42 0
-10 42 6 0
-3 -34 25 0
-45 49 11 0
-19 -49 47 0
-47 -34 12 0
32 -16 1 0
50 -31 -32 0
-25 -45 -6 0
-37 41 49 0
3 -30 13 0
40 1 -45 0
-18 -31 -27 0
34 19 -46 0
1 27 4 0
17 35 -27 0
1 -25 -30 0
-16 32 48 0
-28 -37 -38 0
28 -32 5 0
-5 -37 -19 0
14 -21 -45 0
17 -41 18 0
-18 46 47 0
16 -38 44 0
40 48 50 0
6 -46 -14 0
-29 39 -21 0
-14 -20 -42 0
-30 -8 37 0
-33 24 -25 0
47 11 4 0
44 8 -32 0
32 45 -13 0
-37 -11 4 0
-19 -8 -18 0
37 -5 11 0
-8 20 -15 0
-6 28 -9 0
-29 -19 49 0
44 -37 -16 0
-3 5 37 0
8 -50 38 0
-14 -37 -9 0
43 7 -27 0
-26 -10 -22 0
-20 27 7 0
38 20 -10 0
17 -25 -14 0
-38 41 36 0
-18 -28 -9 0
-26 -31 44 0
47 32 11 0
13 -38 20 0
28 -49 -26 0
-10 -6 12 0
29 -15 25 0
-5 -16 26 0
-3 22 6 0
15 -7 -27 0
-37 -10 -46 0
-38 -20 11 0
-34 -27 1 0
12 32 31 0
-36 40 35 0
41 35 33 0
19 9 24 0
-10 7 -5 0
-50 -3 -39 0
-28 -32 15 0
38 17 -16 0
16 -21 -28 0
1 6 25 0
