c Coffinhead hard-core n=50 seed=50 ratio=4.0
p cnf 50 200
13 49 10 0
-19 46 -31 0
-32 -16 31 0
11 -34 9 0
-5 -27 -47 0
-42 -22 38 0
-3 -43 35 0
14 22 13 0
18 -28 -26 0
23 -37 -17 0
30 -35 45 0
46 33 -40 0
-20 -46 26 0
20 32 8 0
48 -10 4 0
46 -43 47 0
50 48 -12 0
33 14 6 0
46 -3 41 0
33 -3 -17 0
-37 -4 -21 0
5 16 21 0
-4 40 -47 0
-11 -37 -42 0
24 -44 27 0
-41 -28 -35 0
32 -27 -1 0
-14 -1 23 0
-48 29 -4 0
18 -13 44 0
13 16 -41 0
-7 -35 28 0
19 -28 -43 0
3 -48 -28 0
-30 9 35 0
-33 18 45 0
38 -20 -44 0
-9 -21 28 0
36 -10 -49 0
-37 3 31 0
-32 16 43 0
-29 9 -30 0
10 13 8 0
-28 -27 -26 0
18 -20 50 0
14 -32 31 0
50 -37 34 0
31 29 30 0
-22 45 -48 0
-50 14 11 0
1 -4 -39 0
-32 29 43 0
-38 -3 33 0
5 -24 -31 0
18 37 35 0
12 -25 7 0
-12 42 -50 0
-27 -23 14 0
2 41 -27 0
-39 20 29 0
21 8 44 0
7 -27 31 0
-49 -44 48 0
22 -30 16 0
-41 35 19 0
-30 -31 -21 0
-11 7 26 0
-31 -40 19 0
34 -39 25 0
-8 -34 -17 0
37 8 16 0
19 7 -18 0
-44 45 33 0
7 26 15 0
-8 -29 -19 0
50 -23 15 0
-30 15 2 0
50 -22 -6 0
49 -29 -8 0
-23 -30 32 0
-3 -16 44 0
2 35 34 0
-32 -34 -10 0
-24 -18 -15 0
-24 6 -23 0
12 -6 -27 0
2 -21 34 0
31 -7 -14 0
6 34 11 0
-9 -50 -15 0
-32 31 19 0
11 -21 46 0
41 -28 17 0
-8 -41 19 0
-17 46 -11 0
19 36 -10 0
-6 30 44 0
-48 -25 46 0
19 24 -42 0
-35 11 45 0
-1 44 -45 0
48 43 -29 0
-48 42 24 0
14 -39 31 0
-23 -44 -19 0
-11 1 37 0
43 4 48 0
40 12 42 0
4 -21 43 0
-15 32 -4 0
-33 -21 32 0
-25 40 -38 0
38 -6 -33 0
-42 46 -8 0
-37 33 -9 0
32 45 -12 0
-40 26 -23 0
-27 -22 15 0
43 -40 26 0
6 2 5 0
-42 -43 -26 0
-24 20 -23 0
-28 -34 12 0
-41 34 45 0
2 41 11 0
33 34 -50 0
11 26 -3 0
7 35 -36 0
45 -16 37 0
-9 43 -1 0
-13 11 -42 0
10 -16 -50 0
46 24 38 0
27 -19 50 0
-42 6 -46 0
24 -46 49 0
-13 12 -5 0
-50 28 1 0
-5 -23 -27 0
-33 38 -46 0
12 17 20 0
-44 48 -7 0
44 -4 50 0
-41 20 -21 0
32 -45 -8 0
39 15 -18 0
-32 38 -1 0
15 49 46 0
49 -13 -14 0
-22 11 37 0
-29 3 -28 0
-4 26 19 0
47 -6 -10 0
16 1 -32 0
-47 23 11 0
-36 20 14 0
43 -22 7 0
44 35 -6 0
8 29 -42 0
2 -32 28 0
18 -28 31 0
-33 47 8 0
-32 -47 25 0
-46 -15 -18 0
1 33 49 0
-16 13 12 0
32 -48 15 0
-40 -46 -30 0
42 28 37 0
-3 5 -23 0
-49 -45 -23 0
-2 16 26 0
14 46 -7 0
21 -45 -19 0
47 39 50 0
11 18 -27 0
14 8 39 0
47 -2 22 0
10 -25 -24 0
8 27 20 0
-26 4 7 0
-11 -33 3 0
-2 -7 42 0
-36 -35 -6 0
-16 -36 49 0
4 3 -27 0
-28 -34 15 0
34 -32 -36 0
-27 48 17 0
-13 -10 -6 0
-15 -19 18 0
-23 -37 -18 0
5 30 41 0
5 11 -20 0
-25 -18 -40 0
13 22 -9 0
-38 7 -6 0
7 -5 -41 0
-36 -4 29 0
4 -15 -27 0
