c Coffinhead hard-core n=50 seed=1 ratio=4.0
p cnf 50 200
12 8 34 0
22 -40 5 0
39 49 46 0
-14 5 17 0
-1 36 -23 0
-5 -23 3 0
-37 18 28 0
-44 -50 -35 0
-18 -28 9 0
2 -4 -43 0
-9 3 36 0
23 -7 47 0
-24 -20 10 0
-15 28 -10 0
3 36 -48 0
-31 -15 27 0
29 19 -11 0
-14 45 -24 0
-8 31 -23 0
49 4 -39 0
-29 12 -26 0
-38 -48 3 0
-44 -45 -42 0
-18 45 -40 0
-2 28 42 0
35 -19 40 0
5 11 48 0
-24 -1 -42 0
-21 -4 48 0
25 6 -47 0
36 12 39 0
36 2 17 0
-39 -24 -25 0
4 31 32 0
17 43 10 0
24 28 47 0
21 -25 -11 0
-3 -25 44 0
44 -42 49 0
43 -19 -20 0
-23 -41 -37 0
-45 -20 -17 0
-16 -50 23 0
43 -48 14 0
22 10 -28 0
-11 33 -2 0
-41 31 -8 0
33 46 -19 0
-19 -9 -10 0
11 -1 46 0
33 -47 -30 0
-48 -14 -17 0
12 -50 -46 0
17 -1 8 0
-38 8 -37 0
-50 -13 38 0
21 -22 24 0
-47 24 -26 0
18 -8 -50 0
-3 -12 -20 0
3 29 6 0
19 -23 21 0
16 -47 -5 0
10 37 11 0
-41 48 -11 0
27 -28 -13 0
23 -49 -16 0
-20 26 -21 0
-9 -42 -4 0
-5 15 11 0
-19 -20 17 0
-18 23 8 0
-11 -16 -27 0
40 -7 -39 0
44 8 46 0
50 14 -23 0
-20 48 19 0
-19 38 28 0
-37 -34 2 0
-26 -46 -19 0
14 27 -25 0
32 -21 1 0
50 -11 30 0
34 31 -27 0
-32 42 -4 0
-41 12 16 0
-37 -10 47 0
-24 16 38 0
39 42 -22 0
44 -49 15 0
4 -23 41 0
50 45 -35 0
49 24 21 0
-31 13 -24 0
18 2 -24 0
-8 -29 18 0
25 -48 -28 0
36 10 -8 0
-22 -19 -30 0
32 -39 -15 0
11 -42 24 0
-42 36 -7 0
-48 14 26 0
45 -44 -27 0
-39 -2 1 0
28 -24 -50 0
17 5 -11 0
16 -33 7 0
-35 27 31 0
-47 9 -46 0
8 -25 42 0
23 -46 -41 0
-41 38 -40 0
-21 -32 25 0
-8 39 38 0
24 32 33 0
-26 22 44 0
-46 -37 16 0
-18 -33 37 0
-41 -48 15 0
7 39 -23 0
22 -47 -50 0
-45 29 -26 0
-50 -7 -44 0
-47 -6 -27 0
45 -13 -9 0
-38 -45 -1 0
3 1 10 0
-20 5 28 0
-10 -4 26 0
-49 -46 -5 0
-34 -44 -47 0
39 10 -34 0
40 -11 45 0
-48 -40 -15 0
49 44 -45 0
6 -17 -5 0
13 -3 -20 0
-36 12 -37 0
29 46 32 0
-38 -12 -23 0
-9 -27 13 0
49 46 -24 0
14 19 -4 0
20 -21 -37 0
-23 37 -29 0
28 -29 -38 0
-24 -20 36 0
-40 7 44 0
-6 1 45 0
-27 29 4 0
23 -27 -11 0
-31 45 -40 0
-29 6 -32 0
23 -38 8 0
-47 -30 -13 0
15 10 11 0
49 22 -8 0
49 -25 21 0
-23 -21 -13 0
46 -29 -24 0
-19 -50 -23 0
47 12 -11 0
-21 41 22 0
14 -30 41 0
36 1 -18 0
31 -20 -35 0
15 50 -27 0
-16 -37 -50 0
48 24 41 0
-5 22 -49 0
-39 49 -34 0
20 -28 2 0
44 -1 -8 0
25 36 -12 0
-42 -33 30 0
-49 -17 47 0
-15 27 -12 0
49 -28 23 0
-18 -24 -3 0
16 -7 45 0
40 24 6 0
46 42 -30 0
-37 -50 -17 0
47 -6 -7 0
-36 1 7 0
-19 37 23 0
-17 -7 47 0
-29 4 11 0
23 -17 -42 0
46 24 6 0
43 -22 1 0
-44 -8 -17 0
-11 -46 2 0
-13 -30 20 0
-39 20 -40 0
-28 29 -49 0
-12 -15 6 0
-22 -12 -26 0
-36 -22 49 0
