c Coffinhead hard-core n=50 seed=26 ratio=4.0
p cnf 50 200
37 11 16 0
-35 18 -7 0
-9 -21 16 0
34 49 13 0
36 -3 -47 0
39 50 7 0
16 13 -21 0
13 -29 8 0
-20 -15 44 0
-22 27 29 0
5 -6 42 0
15 48 -31 0
31 -47 13 0
-28 -29 15 0
36 5 -49 0
13 -43 5 0
-9 30 -23 0
-20 34 30 0
-1 -33 16 0
-29 42 2 0
-7 -38 17 0
-39 13 -16 0
-1 4 -21 0
44 -28 5 0
-35 48 -47 0
23 -19 2 0
-2 24 34 0
-41 -10 27 0
47 30 9 0
-49 -9 -23 0
-48 -12 -40 0
-13 11 20 0
36 -3 39 0
16 -36 31 0
-10 -9 31 0
-31 45 46 0
12 24 -36 0
-46 10 -1 0
39 10 -23 0
48 -2 47 0
28 26 44 0
25 -47 -9 0
26 -33 -41 0
-32 5 33 0
33 -42 1 0
-10 44 -46 0
-43 -49 15 0
27 -42 16 0
1 -39 22 0
-2 37 -8 0
-23 -1 -18 0
28 15 25 0
49 -38 42 0
20 27 12 0
20 -42 -33 0
-32 -39 -11 0
27 -43 4 0
-29 -37 8 0
45 -14 2 0
48 11 -40 0
38 7 -20 0
48 -41 -14 0
-18 -17 8 0
-3 29 -2 0
-18 -33 -38 0
23 20 -21 0
-37 -41 -46 0
35 14 -44 0
-30 44 46 0
5 -13 47 0
35 10 -16 0
-50 -21 -33 0
-30 -4 8 0
-39 46 -24 0
28 -25 48 0
-12 -39 -26 0
-3 -20 23 0
-23 -27 49 0
-10 -3 45 0
10 -4 21 0
-3 -25 -42 0
-47 -33 11 0
38 33 -28 0
47 -49 16 0
13 17 -26 0
1 5 -41 0
11 -27 -24 0
45 19 1 0
50 -31 -18 0
-40 9 49 0
-20 -42 -10 0
27 -21 -1 0
44 -16 -37 0
-8 -4 6 0
-47 3 -44 0
-5 46 -15 0
-22 50 -4 0
49 -16 -44 0
48 -39 -47 0
-15 50 -23 0
19 7 11 0
5 30 -25 0
-46 -48 39 0
-1 -28 -2 0
50 -5 -1 0
-36 26 -11 0
36 -30 -43 0
-31 -38 -35 0
-21 27 -39 0
38 24 28 0
37 28 -29 0
-8 -6 -16 0
30 7 -24 0
-34 27 25 0
50 -11 -38 0
-42 45 -39 0
27 49 20 0
-31 -41 36 0
-25 -41 22 0
46 -7 -1 0
-16 -21 -10 0
-11 19 26 0
44 -47 26 0
-45 -9 43 0
9 35 -47 0
34 -48 7 0
23 46 7 0
48 -41 -22 0
43 29 -26 0
5 33 48 0
-40 25 31 0
14 50 25 0
-46 -19 -16 0
-25 -24 42 0
48 -20 9 0
45 -8 42 0
47 -11 15 0
-31 -18 15 0
-43 15 32 0
-34 -48 -13 0
-9 -43 5 0
-34 21 -19 0
10 32 5 0
-1 -25 -46 0
-33 -17 2 0
8 -35 5 0
8 11 -14 0
-3 -48 28 0
-14 29 18 0
31 -22 -8 0
43 44 -31 0
-24 19 49 0
40 25 -20 0
38 -45 7 0
7 -22 -14 0
37 -50 2 0
17 24 -1 0
-8 4 -11 0
36 46 18 0
39 -26 37 0
38 29 -47 0
30 37 11 0
48 -2 -9 0
8 -11 -32 0
16 22 -44 0
-33 31 28 0
-50 24 43 0
-49 8 27 0
41 20 -1 0
41 20 29 0
-3 42 -29 0
3 -38 40 0
-27 -19 -8 0
35 18 -36 0
28 -24 -49 0
-34 -31 47 0
-10 27 34 0
3 -1 -4 0
-43 -49 -29 0
-30 -25 7 0
9 -19 -22 0
-43 26 -6 0
-22 -41 20 0
31 47 -35 0
-7 27 16 0
-24 -13 26 0
-35 -43 23 0
47 35 46 0
30 49 9 0
3 -25 -26 0
-43 -22 32 0
5 -26 -36 0
-47 12 43 0
36 23 40 0
-11 25 26 0
-42 24 -1 0
-43 6 -1 0
5 4 -3 0
1 37 50 0
12 19 33 0
