c Coffinhead hard-core n=50 seed=3 ratio=4.0
p cnf 50 200
-34 24 -46 0
29 2 6 0
-19 -7 -9 0
-6 -43 13 0
-27 21 -13 0
-11 1 22 0
47 25 19 0
38 -30 -3 0
14 11 9 0
3 -16 22 0
-7 -46 -38 0
-2 25 23 0
-40 -26 -6 0
-46 24 -15 0
-40 29 47 0
-24 -37 -27 0
19 -50 -2 0
-20 -25 -41 0
16 -49 -32 0
-10 -39 30 0
26 -21 -3 0
23 48 -26 0
-38 -16 -46 0
-32 45 30 0
-20 -34 22 0
-19 -17 23 0
40 6 -9 0
32 -49 44 0
-7 45 50 0
-13 43 -48 0
-37 -16 -45 0
-50 40 36 0
31 16 -28 0
-50 1 -11 0
-2 41 -21 0
-5 17 -32 0
12 -14 -37 0
-37 -35 31 0
11 33 8 0
13 -8 -9 0
-15 46 -38 0
38 8 -40 0
35 26 41 0
-50 22 47 0
-49 10 -27 0
-22 -23 -5 0
13 -30 -8 0
25 21 38 0
4 8 -34 0
6 23 15 0
3 -50 10 0
43 44 -19 0
2 1 32 0
45 -37 -11 0
-29 -43 -1 0
-31 -1 -12 0
-38 15 35 0
-10 29 -31 0
43 44 -25 0
-43 13 40 0
-4 1 -2 0
-15 46 -37 0
30 46 12 0
39 -19 4 0
-4 -32 -1 0
-27 -47 -45 0
29 6 -2 0
-33 -14 36 0
-32 36 -44 0
42 -26 -35 0
9 -4 -16 0
-44 -30 41 0
29 49 9 0
33 -50 -19 0
25 8 21 0
-6 -48 -45 0
-20 -2 -26 0
-15 45 -13 0
40 -48 -2 0
-14 38 45 0
8 39 9 0
-33 -11 28 0
26 37 3 0
-37 23 -14 0
-38 -6 44 0
-1 -4 32 0
-18 -20 48 0
43 5 -47 0
-26 14 18 0
17 46 -4 0
5 -34 21 0
49 -16 -25 0
9 10 20 0
9 18 35 0
25 24 2 0
16 8 40 0
30 -3 -1 0
28 10 46 0
5 30 -15 0
30 -21 2 0
-32 -38 -24 0
-7 -28 -23 0
-14 3 23 0
-44 39 -34 0
-43 38 29 0
-47 25 -48 0
-50 -15 9 0
27 -12 -38 0
-21 7 1 0
18 -36 -37 0
-16 -14 36 0
10 29 28 0
-12 18 24 0
-16 -39 -29 0
-45 25 20 0
-3 7 -36 0
-10 23 -49 0
37 -33 29 0
-9 -25 -27 0
-37 -31 44 0
7 -46 21 0
-3 -4 -47 0
6 -15 -46 0
10 -23 38 0
6 21 43 0
-25 12 -21 0
31 -19 18 0
5 4 22 0
-20 3 -25 0
9 32 33 0
-46 -27 -17 0
29 15 -49 0
-28 -9 29 0
20 32 -39 0
-29 -14 28 0
32 -21 -37 0
32 9 -33 0
-5 7 27 0
15 -50 20 0
-9 17 -36 0
-48 45 16 0
-33 -12 -45 0
31 -27 32 0
1 36 32 0
-25 40 -27 0
-28 -14 8 0
40 -39 45 0
-21 -2 -32 0
-3 27 -22 0
-3 18 -50 0
48 1 -42 0
-3 29 -26 0
-43 -33 21 0
16 -20 -1 0
9 27 -43 0
-13 22 25 0
-13 48 -36 0
9 43 38 0
34 -26 36 0
-16 4 -23 0
5 3 15 0
36 -20 6 0
33 -18 -20 0
-50 -42 -3 0
34 -35 -50 0
38 32 -22 0
-39 -16 -19 0
20 -18 26 0
9 48 5 0
-35 -18 12 0
-10 -22 49 0
-40 29 -37 0
32 22 -42 0
43 5 26 0
13 4 -36 0
-42 -13 1 0
-40 50 -34 0
-48 -19 -2 0
-36 -12 -16 0
-8 24 -22 0
23 12 50 0
20 -45 -38 0
-18 47 21 0
-49 -17 -21 0
21 5 -47 0
-32 -47 -23 0
-37 -24 20 0
-24 -45 25 0
-11 -3 28 0
-10 45 -38 0
-27 -48 38 0
34 50 -36 0
-43 -1 8 0
1 13 23 0
28 -5 12 0
23 31 9 0
48 15 2 0
29 38 19 0
-6 -45 38 0
-29 -41 20 0
