c Coffinhead hard-core n=50 seed=51 ratio=4.0
p cnf 50 200
-30 -34 -17 0
28 11 37 0
48 24 -8 0
4 10 -45 0
-41 12 -15 0
-32 -2 -48 0
-9 8 -10 0
37 13 15 0
23 -25 -44 0
17 24 19 0
12 -23 -18 0
35 12 -6 0
7 40 47 0
-19 38 -33 0
41 50 -1 0
25 -29 45 0
-20 -4 -46 0
-31 11 -2 0
49 -3 6 0
5 22 -44 0
-31 12 36 0
-1 -38 43 0
21 30 27 0
41 -29 25 0
-20 32 -4 0
-48 -29 13 0
37 -36 12 0
3 -5 -49 0
-38 -1 12 0
9 10 1 0
-37 -23 -34 0
50 48 17 0
28 32 -31 0
-21 31 24 0
25 -11 -33 0
10 -1 -40 0
-28 46 -4 0
-23 -35 42 0
-18 47 38 0
-49 24 50 0
42 8 37 0
-1 29 12 0
34 -31 -36 0
-26 -46 7 0
-6 33 -37 0
-45 -28 19 0
-41 -37 20 0
-26 29 -11 0
-21 47 -12 0
22 34 18 0
-45 -19 -24 0
22 -47 -37 0
-32 5 -30 0
-23 -8 7 0
7 5 -6 0
31 11 3 0
36 45 15 0
33 -50 -20 0
9 48 50 0
-6 17 1 0
8 27 -48 0
-3 46 -13 0
-37 14 -45 0
42 -2 -49 0
13 -35 27 0
39 -23 25 0
-40 17 -14 0
-1 -31 8 0
-43 -35 19 0
-47 -21 -27 0
-35 -8 34 0
44 11 39 0
-17 20 -2 0
-39 28 5 0
40 -39 18 0
-30 49 14 0
-23 -29 39 0
-31 -42 17 0
16 41 13 0
-44 -40 18 0
-37 7 -18 0
-32 -50 -21 0
4 -31 -44 0
9 -32 24 0
-11 29 6 0
-9 -43 -1 0
-19 27 4 0
18 -38 16 0
12 -7 21 0
-48 32 50 0
-30 -22 -36 0
46 3 6 0
15 30 -12 0
-36 -17 -49 0
18 40 1 0
2 31 27 0
39 -38 -50 0
11 -14 -46 0
23 31 15 0
-41 -24 45 0
-38 13 2 0
26 13 -21 0
-48 21 1 0
-15 -25 -30 0
-42 -19 -10 0
33 -29 -16 0
-14 -5 11 0
-2 -28 26 0
-41 48 29 0
19 15 -10 0
-4 13 -12 0
-39 -7 -47 0
32 41 -26 0
-13 1 -41 0
-2 31 19 0
24 14 -6 0
31 43 50 0
-48 38 43 0
14 47 11 0
7 38 -48 0
37 -23 16 0
50 40 36 0
-28 -25 32 0
45 11 42 0
32 10 11 0
16 28 -46 0
4 48 -5 0
-42 20 -7 0
15 34 41 0
-30 8 5 0
-25 -29 -50 0
-6 40 -18 0
30 44 -26 0
14 -20 -23 0
16 39 -42 0
-38 17 22 0
33 5 -7 0
32 5 -50 0
15 47 23 0
25 -28 -3 0
-40 -11 20 0
24 -44 19 0
34 30 31 0
-24 20 16 0
-7 6 12 0
-2 12 39 0
-39 -14 32 0
-38 -29 10 0
16 -13 -10 0
-43 39 7 0
-1 3 40 0
9 21 -7 0
21 37 19 0
-36 -47 -31 0
13 29 42 0
-30 -34 -1 0
-16 -5 50 0
27 37 2 0
3 -7 18 0
-40 43 -18 0
10 -31 -22 0
20 6 11 0
-9 -16 34 0
49 -12 -27 0
-30 6 -9 0
36 19 -2 0
-11 41 -32 0
25 -40 9 0
16 19 -33 0
31 -4 41 0
1 30 -12 0
-29 -28 33 0
16 20 26 0
-15 32 23 0
-22 30 -16 0
11 -21 4 0
-50 2 -47 0
4 -16 15 0
11 -30 18 0
14 16 27 0
-16 14 31 0
14 1 -46 0
1 27 6 0
-23 13 50 0
27 -28 30 0
45 28 -50 0
-27 20 -2 0
6 25 -16 0
-15 -12 36 0
5 -14 28 0
-15 -14 -18 0
-40 47 44 0
14 -19 -24 0
8 -32 -5 0
5 -24 39 0
26 -15 -11 0
-42 -22 16 0
-48 32 1 0
-28 17 -18 0
44 -26 -22 0
