c Coffinhead hard-core n=50 seed=36 ratio=4.0
p cnf 50 200
-47 -7 -24 0
38 -8 18 0
-1 27 20 0
-3 11 32 0
-2 -50 -43 0
38 -49 22 0
-41 -24 18 0
29 4 11 0
34 49 45 0
49 -1 29 0
-12 -21 23 0
18 29 -3 0
20 -44 -48 0
40 -7 49 0
-5 -10 34 0
-22 10 6 0
14 -13 -9 0
40 44 43 0
20 19 47 0
-28 17 22 0
-41 -38 -23 0
-3 -41 -37 0
-26 8 30 0
40 3 -21 0
-44 4 -13 0
-17 8 46 0
34 -13 -5 0
-8 25 39 0
37 -8 29 0
20 8 -12 0
50 3 -33 0
-37 17 -39 0
-33 -34 31 0
-22 19 45 0
-41 -9 -15 0
14 -9 23 0
38 21 23 0
-27 -40 8 0
-38 -32 34 0
-17 -28 -35 0
5 7 -38 0
40 21 -35 0
-14 -28 7 0
44 26 -2 0
-16 6 43 0
-30 -20 19 0
-47 41 4 0
-38 -22 -3 0
12 34 11 0
-23 -45 -5 0
49 -25 6 0
1 26 -39 0
-45 -21 34 0
-6 2 43 0
-48 -31 -24 0
20 -14 -41 0
40 -27 4 0
10 -4 46 0
25 -34 49 0
29 28 9 0
-18 47 17 0
44 33 -14 0
1 -22 13 0
-43 17 -31 0
-49 10 -28 0
9 14 29 0
-9 -10 15 0
-19 1 42 0
41 4 -28 0
-47 -2 -46 0
-12 20 -45 0
6 48 -41 0
-34 -17 37 0
-36 40 -2 0
-49 3 -9 0
34 37 -36 0
-13 -46 -47 0
27 -30 -47 0
16 41 25 0
-37 4 -6 0
-29 -38 9 0
42 49 46 0
-7 26 -9 0
-4 8 42 0
26 23 49 0
-26 -14 -10 0
7 46 15 0
-50 -46 -4 0
-9 -39 22 0
-31 -8 -39 0
-15 -25 23 0
36 -35 -46 0
3 -5 -50 0
5 29 33 0
7 -42 -26 0
12 -28 22 0
30 32 10 0
-12 37 29 0
-3 -35 25 0
9 15 -43 0
6 47 -18 0
-26 29 -10 0
-6 46 -3 0
32 -38 34 0
42 -12 19 0
16 20 48 0
-7 -8 34 0
-7 -32 -40 0
23 -20 -45 0
42 -50 -44 0
48 -8 21 0
23 47 -33 0
-25 32 17 0
-22 -34 10 0
50 -18 -17 0
-26 50 -23 0
45 -26 23 0
17 -41 18 0
26 -5 20 0
26 36 37 0
14 7 -10 0
21 -35 23 0
21 18 8 0
-26 -4 -15 0
6 26 42 0
24 -39 23 0
48 41 -5 0
18 25 23 0
47 -25 31 0
15 16 1 0
-25 -27 -19 0
12 49 26 0
36 32 47 0
36 -44 1 0
38 -17 10 0
29 17 -8 0
-31 17 50 0
-4 -45 50 0
-13 -29 31 0
-19 27 -8 0
-15 6 -23 0
-15 -10 -34 0
23 -31 -27 0
25 -40 22 0
17 28 -42 0
-24 -31 35 0
-45 -38 11 0
13 50 -10 0
-22 31 -46 0
13 -42 -15 0
-44 -25 -10 0
7 32 45 0
28 -4 18 0
-27 -17 7 0
26 -32 7 0
-27 -12 31 0
30 20 40 0
27 48 -8 0
-22 31 -37 0
-29 -1 -36 0
-47 -9 -24 0
43 24 -44 0
-26 13 -47 0
44 9 43 0
-24 6 -2 0
39 -24 13 0
-26 46 -42 0
-19 -40 -49 0
-33 40 18 0
-50 -30 28 0
9 -44 16 0
42 -6 1 0
-37 -49 2 0
48 1 -11 0
35 -18 50 0
28 -43 24 0
23 -22 -16 0
-12 -14 30 0
15 -5 -32 0
-19 -49 -44 0
24 -40 -30 0
9 44 -42 0
-1 45 50 0
47 -18 -19 0
46 -43 34 0
-47 17 35 0
40 -48 -33 0
50 18 -32 0
24 43 49 0
37 30 20 0
-27 42 -33 0
12 46 -13 0
8 1 -2 0
34 25 40 0
25 -43 1 0
-1 9 5 0
-27 50 46 0
-29 8 -38 0
29 -43 -41 0
32 -44 19 0
