c Coffinhead hard-core n=50 seed=22 ratio=4.0
p cnf 50 200
43 1 45 0
20 33 18 0
-32 12 -24 0
41 10 -40 0
-22 -24 -5 0
45 -8 -37 0
-39 -30 -6 0
-36 -41 -9 0
-1 6 34 0
-45 -7 -19 0
-13 -10 -39 0
-41 -17 31 0
-13 -38 -11 0
-10 1 20 0
21 -20 -19 0
-1 34 18 0
-15 7 50 0
44 -6 45 0
-31 37 -22 0
-43 2 15 0
2 -45 -33 0
-13 19 36 0
15 -23 -45 0
28 26 -44 0
-49 -12 18 0
28 -31 38 0
4 -27 -10 0
-33 2 -25 0
8 -43 -10 0
-48 -41 6 0
-25 -31 35 0
-38 -13 -49 0
11 19 2 0
-47 -6 -28 0
-15 -27 19 0
3 17 19 0
5 -1 -37 0
-37 -38 15 0
-30 -49 26 0
19 -16 -27 0
7 -30 41 0
-2 25 44 0
-41 -36 -27 0
14 37 42 0
49 -12 36 0
41 -13 22 0
41 -10 -17 0
39 -13 17 0
28 6 -27 0
-33 9 -36 0
-4 -6 -43 0
-42 43 41 0
16 -47 -5 0
27 3 30 0
-29 -13 38 0
14 -3 -38 0
5 13 49 0
46 28 8 0
-12 47 -40 0
-31 -10 22 0
25 -8 36 0
26 44 38 0
12 -21 17 0
-2 39 18 0
-11 -46 -1 0
-14 5 10 0
21 2 -11 0
-27 -7 -24 0
49 29 -5 0
4 -21 -34 0
7 15 47 0
-34 -18 33 0
-32 34 39 0
-21 17 -48 0
-21 -43 17 0
30 38 -19 0
-43 9 37 0
26 34 -28 0
-14 -16 49 0
-37 9 45 0
8 23 27 0
34 -49 -22 0
-4 31 -24 0
47 -30 -46 0
-24 3 35 0
27 1 -20 0
-15 -9 14 0
50 -3 -33 0
14 -8 20 0
18 45 29 0
-33 -6 -40 0
45 36 40 0
50 -38 -26 0
-7 -4 31 0
-14 29 -26 0
-41 -13 -10 0
-15 -7 40 0
11 -19 35 0
22 -7 -36 0
-7 -19 -31 0
-11 -18 16 0
-2 -26 -9 0
-20 11 -12 0
42 -13 26 0
5 9 2 0
11 13 2 0
49 -5 12 0
43 7 38 0
-36 -40 -6 0
21 -26 48 0
46 -37 42 0
33 30 12 0
29 22 -32 0
-24 5 42 0
19 33 6 0
-24 -14 39 0
4 -8 1 0
44 11 -24 0
29 4 -31 0
-19 -20 2 0
14 36 -9 0
-36 -1 14 0
8 -39 6 0
43 20 8 0
-42 -28 -14 0
-25 -38 -43 0
-41 49 43 0
-18 34 23 0
-37 16 -31 0
20 32 -30 0
36 -48 42 0
20 -13 -31 0
-47 -45 20 0
12 -39 -44 0
-19 33 8 0
25 -41 3 0
5 -39 24 0
-23 38 29 0
-46 -3 5 0
49 47 43 0
28 -14 36 0
40 -13 7 0
-23 -50 -25 0
24 41 5 0
6 18 -32 0
46 -5 -34 0
-30 -49 18 0
-35 -46 -34 0
-18 -19 22 0
40 -41 -46 0
11 -21 -12 0
37 -25 -34 0
18 1 3 0
-42 -48 -39 0
-47 -34 -39 0
-40 44 32 0
6 -28 -1 0
-44 10 -9 0
-4 42 10 0
-45 34 10 0
2 15 -39 0
-7 6 23 0
8 -17 -22 0
-24 48 40 0
24 -44 32 0
-6 14 -5 0
-6 -10 36 0
21 -17 16 0
41 -48 45 0
19 28 21 0
21 -22 43 0
-24 -23 -27 0
44 -50 21 0
5 42 26 0
40 38 -22 0
-34 6 -35 0
42 -48 -41 0
-35 32 15 0
-43 -50 -45 0
-16 23 36 0
1 33 -10 0
-22 -4 -11 0
19 -44 10 0
8 16 40 0
-11 -48 -20 0
34 -28 -47 0
42 2 -44 0
9 -22 43 0
22 5 -42 0
41 2 48 0
38 18 32 0
46 -31 18 0
25 45 -9 0
-5 50 -30 0
20 4 6 0
-36 -45 6 0
25 20 31 0
34 -2 -44 0
3 39 -2 0
10 42 7 0
