c Coffinhead hard-core n=50 seed=23 ratio=4.0
p cnf 50 200
-10 -8 -22 0
-45 36 -24 0
18 -8 31 0
4 -22 16 0
-44 17 -13 0
27 -46 29 0
-9 21 35 0
-41 -24 -35 0
-20 1 -35 0
29 36 -16 0
-25 -12 7 0
26 27 31 0
41 -23 38 0
10 44 -2 0
-2 33 44 0
44 26 -4 0
11 -4 -40 0
4 -10 48 0
-18 25 21 0
27 48 -9 0
-36 -43 32 0
-42 11 -13 0
24 -10 1 0
9 35 17 0
18 48 -15 0
39 -7 22 0
17 -45 9 0
-48 -19 49 0
-5 1 36 0
18 -13 43 0
-21 10 -13 0
49 4 32 0
26 10 -17 0
23 -36 -30 0
34 -8 -47 0
49 19 11 0
-13 -2 -34 0
43 15 -42 0
45 -19 -50 0
-22 -46 26 0
2 35 -32 0
17 10 27 0
-38 27 -34 0
15 47 -14 0
26 -17 -24 0
14 16 3 0
-6 -45 -21 0
19 -39 -35 0
4 -47 -11 0
14 44 -2 0
39 11 -12 0
10 26 39 0
-5 30 44 0
4 -22 -23 0
50 7 -15 0
-42 32 25 0
-31 8 -37 0
-22 9 42 0
44 -47 40 0
-33 30 -32 0
47 -6 -16 0
-48 -9 -20 0
10 22 46 0
14 -37 -31 0
44 -7 -3 0
-38 -1 -22 0
-35 36 30 0
-29 -16 38 0
36 -46 -4 0
30 -21 31 0
3 18 -46 0
27 -35 -14 0
-10 -12 -40 0
-29 -19 -5 0
-35 49 -34 0
-31 -9 24 0
-50 -15 -17 0
49 37 -18 0
-8 12 25 0
48 44 8 0
10 8 -31 0
31 32 50 0
35 50 45 0
17 42 14 0
-29 -7 -32 0
38 1 29 0
8 -19 47 0
-18 -24 12 0
-1 38 -35 0
11 -30 5 0
17 13 -2 0
-37 -47 -46 0
16 10 27 0
13 -2 27 0
23 -14 -46 0
-23 -32 -37 0
31 5 -34 0
29 -34 10 0
30 21 -7 0
13 -36 -27 0
-27 -32 -41 0
-27 -1 -10 0
-13 45 27 0
9 12 28 0
3 39 18 0
27 45 -8 0
-9 48 -35 0
-24 41 22 0
-34 23 -35 0
5 6 -41 0
39 17 1 0
33 -10 7 0
-18 4 -5 0
-24 -47 -32 0
-42 31 20 0
-47 -20 24 0
29 -25 37 0
-15 25 20 0
23 -19 -18 0
-5 6 -1 0
34 41 -21 0
36 9 28 0
-20 -14 47 0
33 -10 6 0
-18 23 -43 0
-29 32 -17 0
-39 26 35 0
-8 -10 -3 0
28 5 25 0
-29 -47 4 0
-38 -41 -50 0
30 15 47 0
-29 -25 -27 0
-1 21 -7 0
-41 -38 -26 0
41 -45 -12 0
6 25 13 0
-33 30 -18 0
-50 45 21 0
-39 -44 5 0
-15 -31 -41 0
10 -28 -47 0
-46 42 2 0
-40 10 -15 0
25 19 -3 0
35 -10 27 0
-1 -35 -4 0
-50 -2 -9 0
-7 19 -48 0
42 13 -8 0
-41 -23 12 0
-17 35 14 0
6 -24 -50 0
42 -30 -5 0
39 -32 -25 0
-6 -7 26 0
43 -36 35 0
1 -16 37 0
33 -9 16 0
-10 34 5 0
48 17 13 0
-12 -28 27 0
-18 -21 -16 0
7 39 8 0
20 5 -15 0
3 32 14 0
-29 -43 49 0
-49 -36 4 0
-15 -4 -39 0
-1 50 -43 0
23 -45 33 0
14 26 -27 0
9 -48 -34 0
49 27 -37 0
6 17 3 0
-11 25 8 0
14 -3 25 0
4 -40 -41 0
41 25 38 0
44 39 24 0
-28 43 -12 0
-9 47 -7 0
-8 -31 -43 0
-9 -3 45 0
30 29 -2 0
-40 39 25 0
-32 31 48 0
39 -12 -32 0
20 9 48 0
-5 -36 -12 0
30 1 43 0
-12 15 22 0
-9 43 32 0
39 33 22 0
7 -21 -23 0
24 35 36 0
47 7 23 0
-33 -27 16 0
-46 7 -31 0
1 -45 19 0
