c Coffinhead hard-core n=50 seed=11 ratio=4.0
p cnf 50 200
-22 50 38 0
31 23 3 0
50 34 2 0
39 -49 8 0
12 43 -8 0
14 35 12 0
8 3 32 0
31 12 16 0
-22 -12 17 0
31 29 -40 0
6 -34 -40 0
8 -44 45 0
26 11 39 0
-4 1 -40 0
-35 23 26 0
-31 30 13 0
-1 24 -48 0
1 -47 40 0
41 -18 -30 0
3 35 -8 0
-36 17 -43 0
-21 28 40 0
33 -7 -22 0
-18 -42 -48 0
-3 -34 9 0
25 43 6 0
-18 20 44 0
3 17 -50 0
50 19 42 0
-12 -5 -8 0
28 -48 43 0
19 -27 33 0
-19 32 2 0
50 9 -2 0
16 19 31 0
-7 -35 -13 0
5 19 44 0
-27 -3 -18 0
-15 33 31 0
-16 23 47 0
16 30 19 0
-44 -15 -22 0
39 6 50 0
-15 42 38 0
16 -34 -28 0
46 24 2 0
-40 49 30 0
-31 1 24 0
34 -21 38 0
47 44 -16 0
-44 -45 -39 0
-15 -24 17 0
-16 50 -8 0
-9 -6 10 0
-8 -37 32 0
23 -19 47 0
32 -50 -31 0
3 -14 42 0
-30 -40 -31 0
-31 21 45 0
-28 25 7 0
25 -23 10 0
30 -7 49 0
28 -16 22 0
-6 22 41 0
-27 50 20 0
46 -26 6 0
-16 -25 41 0
-30 32 11 0
-18 33 1 0
34 46 18 0
-15 5 -10 0
13 -36 -8 0
-21 38 13 0
-3 -10 -1 0
23 -13 21 0
-35 -27 -32 0
-43 -2 27 0
-21 34 24 0
17 -33 -19 0
-31 -40 1 0
-5 40 -9 0
-34 -17 -38 0
33 -38 -32 0
-35 12 -41 0
3 9 25 0
14 -10 24 0
-36 19 13 0
28 -12 8 0
-21 5 -29 0
-26 44 8 0
-33 -29 -22 0
30 38 1 0
37 -5 -21 0
-36 7 -10 0
-9 22 8 0
-9 19 23 0
6 -46 29 0
26 33 -47 0
-28 5 24 0
-11 -22 -40 0
47 2 -42 0
20 50 29 0
-49 30 28 0
-25 30 -37 0
-17 -7 -45 0
-16 41 24 0
-4 -23 -49 0
3 29 -11 0
6 28 47 0
-41 11 -21 0
9 -1 5 0
-35 -2 39 0
-7 -21 -34 0
-14 41 -31 0
-39 -16 45 0
16 7 -15 0
-18 -44 25 0
-44 -2 25 0
47 -8 -33 0
-20 -38 -2 0
50 43 -11 0
-24 4 49 0
27 -19 1 0
-31 40 -42 0
19 41 -38 0
26 -14 46 0
6 -11 -48 0
-15 -18 10 0
-41 33 -8 0
29 -30 -21 0
-39 -19 36 0
-37 24 14 0
-14 -32 21 0
-33 40 25 0
6 -35 -39 0
-19 12 8 0
-2 11 19 0
30 44 50 0
-34 -29 -3 0
-13 -42 -34 0
2 -6 5 0
9 -18 -47 0
-28 11 -41 0
-47 26 3 0
-41 -39 31 0
23 -28 -47 0
11 -23 44 0
-29 -41 27 0
1 -48 -44 0
40 25 -41 0
25 28 -43 0
22 30 4 0
-20 18 -49 0
-26 16 8 0
9 5 2 0
41 6 3 0
17 -19 -32 0
-41 13 -39 0
-15 -45 49 0
13 37 1 0
-13 -50 29 0
26 8 -40 0
6 -23 44 0
13 5 30 0
37 8 -22 0
-7 38 48 0
39 12 36 0
37 5 -10 0
10 20 -39 0
-22 -50 15 0
-31 4 49 0
-44 -24 32 0
21 18 -49 0
-8 -39 -46 0
-25 5 -9 0
-50 -5 31 0
42 -5 2 0
-48 42 -21 0
33 45 47 0
27 -5 -35 0
-46 14 38 0
-40 21 18 0
-39 7 -43 0
-1 7 17 0
42 16 45 0
-35 -34 42 0
-11 -2 46 0
-40 43 37 0
-6 -5 1 0
44 -5 -17 0
-30 33 -13 0
-18 -28 1 0
38 -8 -18 0
30 -46 8 0
36 13 25 0
11 18 -4 0
-32 -42 -41 0
-21 -23 32 0
44 36 -29 0
