c Coffinhead hard-core n=50 seed=47 ratio=4.0
p cnf 50 200
-30 50 43 0
-4 6 -42 0
8 -40 -49 0
47 17 -41 0
49 2 -16 0
-19 43 -35 0
6 8 -27 0
-39 -1 -10 0
23 10 -3 0
-5 39 -50 0
-3 -10 -34 0
-5 -39 12 0
-8 -20 -29 0
42 8 -24 0
-26 -11 -12 0
2 -31 7 0
47 38 46 0
9 1 32 0
5 31 34 0
15 -25 -30 0
-12 -37 -45 0
-41 3 14 0
-8 -1 -24 0
-28 -14 26 0
-2 -27 15 0
-23 -22 -8 0
-35 -36 50 0
5 42 8 0
-18 -21 3 0
10 24 23 0
3 21 -33 0
15 -31 -43 0
-21 6 11 0
-8 12 26 0
-46 25 23 0
-31 32 -33 0
-29 -22 -48 0
23 -13 45 0
22 30 43 0
-4 -29 16 0
-2 6 35 0
16 -35 -19 0
29 23 14 0
-38 -5 31 0
45 -4 -3 0
9 7 -2 0
-5 -22 33 0
-24 37 42 0
17 -46 40 0
30 -2 -24 0
-48 15 -18 0
15 36 -50 0
42 8 50 0
-18 -24 16 0
-45 31 -30 0
-36 37 -19 0
-29 17 -2 0
15 -12 -33 0
1 -37 -28 0
6 -28 -43 0
-48 49 20 0
6 7 -41 0
-15 -36 18 0
-7 26 25 0
15 42 3 0
11 -21 7 0
37 -19 28 0
-12 -27 -17 0
10 -41 -4 0
-26 -35 -39 0
-32 -24 19 0
12 38 41 0
7 14 39 0
36 -27 23 0
-48 21 6 0
27 12 28 0
45 43 -17 0
-36 -6 -37 0
47 8 -30 0
-24 29 16 0
-50 -43 -15 0
-11 38 -26 0
14 -30 12 0
-50 30 7 0
39 20 -46 0
41 38 34 0
40 -38 13 0
-18 -19 44 0
26 42 -36 0
-23 -29 22 0
-33 -16 34 0
-24 32 -27 0
-35 -14 10 0
22 -45 7 0
17 36 44 0
-27 4 43 0
-37 16 -22 0
-50 21 42 0
-23 2 7 0
31 38 -21 0
36 46 24 0
-27 28 -42 0
-13 45 -49 0
45 18 21 0
-17 24 -40 0
14 8 -50 0
10 -1 49 0
50 37 -39 0
-8 11 5 0
-33 -46 -41 0
36 -3 29 0
-31 15 7 0
-3 15 -8 0
-16 27 17 0
20 -13 -36 0
43 40 38 0
-28 -49 -41 0
-41 -49 13 0
-45 -39 -2 0
11 -20 -30 0
42 -36 31 0
19 5 -38 0
39 -47 -44 0
-27 -3 -19 0
34 -33 38 0
-2 -42 -36 0
-22 49 -47 0
16 25 -36 0
44 35 -33 0
6 3 -30 0
44 -37 29 0
-38 -20 37 0
-50 9 -23 0
-10 -5 3 0
-8 -28 -11 0
44 9 -30 0
17 -24 -37 0
-26 -38 -17 0
24 20 -6 0
-7 39 -48 0
13 -28 1 0
32 41 8 0
34 -42 29 0
-1 37 11 0
38 11 1 0
35 -31 -34 0
5 25 -19 0
-15 48 -47 0
35 -29 -40 0
37 17 -28 0
-24 1 43 0
47 -21 -40 0
-33 -25 -6 0
-31 42 -23 0
21 -45 30 0
2 15 40 0
1 -43 41 0
-37 35 -2 0
-50 31 -26 0
-33 -41 -47 0
23 49 -41 0
-5 9 -28 0
-36 38 -31 0
-24 -32 39 0
-40 -17 -9 0
5 -31 -40 0
40 -46 -47 0
14 38 7 0
13 39 -20 0
-27 32 -39 0
10 48 18 0
-42 11 48 0
46 23 8 0
-35 -29 18 0
-41 -24 43 0
12 9 27 0
32 41 39 0
-19 4 3 0
-16 22 -25 0
-21 -34 47 0
32 6 -14 0
-39 -44 -3 0
-3 29 -50 0
16 -7 -18 0
-41 -10 25 0
-39 22 -27 0
21 39 15 0
-21 49 -19 0
-49 -20 -5 0
46 9 -34 0
-1 -25 18 0
-34 -46 24 0
-43 -44 -31 0
-16 40 -36 0
45 20 44 0
-11 -10 -17 0
49 32 -14 0
-50 -9 26 0
-42 -27 8 0
32 41 28 0
