c Coffinhead hard-core n=50 seed=34 ratio=4.0
p cnf 50 200
37 -31 -35 0
-34 40 -1 0
-25 17 -23 0
22 47 -43 0
31 35 -3 0
-21 -15 -41 0
23 -48 -14 0
4 -31 -12 0
22 -5 20 0
11 41 15 0
41 40 -1 0
32 -17 34 0
-33 18 6 0
-13 -29 50 0
-11 44 -5 0
13 -38 28 0
43 -13 49 0
22 39 -5 0
9 -47 35 0
-26 24 23 0
45 27 31 0
33 -50 22 0
-16 -7 15 0
50 27 40 0
-24 29 -37 0
-28 -40 39 0
37 -2 40 0
-6 14 8 0
6 11 -24 0
17 -8 7 0
-18 13 -19 0
39 -5 -25 0
-1 -35 -7 0
2 -49 6 0
16 -1 23 0
16 -6 34 0
16 -46 -50 0
42 28 -34 0
-8 -34 2 0
47 -23 44 0
6 18 -49 0
-39 -42 -35 0
5 -38 35 0
49 -6 7 0
41 -18 24 0
47 25 15 0
-1 32 -17 0
-18 -40 -24 0
-8 49 23 0
17 -26 10 0
-47 24 17 0
-13 32 8 0
14 44 -18 0
2 -4 38 0
-46 -16 -9 0
-41 -32 35 0
17 27 -10 0
-45 34 -10 0
-1 -45 -23 0
15 -12 38 0
30 12 3 0
2 31 13 0
20 5 -18 0
49 30 17 0
-5 37 -16 0
9 22 -13 0
34 -15 44 0
43 -2 -30 0
40 -45 36 0
-28 -49 14 0
26 19 -44 0
22 -10 2 0
33 -49 19 0
50 21 -16 0
-15 43 -6 0
-41 14 -8 0
-49 -31 6 0
-21 -33 16 0
-29 -23 32 0
13 35 21 0
-21 38 -46 0
10 -23 29 0
34 31 48 0
21 -32 15 0
-10 -14 49 0
1 -9 31 0
13 -19 8 0
-9 39 -47 0
-20 -21 35 0
7 46 -14 0
-8 -10 38 0
-39 -22 -24 0
37 -25 -12 0
43 -31 -47 0
-2 -41 -34 0
3 36 -18 0
-36 31 17 0
-19 12 26 0
25 30 37 0
22 -21 38 0
1 44 -34 0
-5 -7 14 0
-21 9 40 0
-17 14 -40 0
32 16 40 0
-23 26 49 0
-20 -46 -44 0
-30 -41 1 0
-50 3 -17 0
35 5 7 0
-27 46 -36 0
-24 23 19 0
-5 44 28 0
11 33 36 0
-19 25 3 0
-19 -36 -17 0
34 26 -4 0
-35 23 -25 0
-17 -25 15 0
41 -38 -46 0
24 -34 -15 0
-4 3 41 0
46 34 -36 0
34 -18 -42 0
30 22 -45 0
-14 -1 -38 0
-11 4 40 0
-32 -33 -47 0
32 -18 -14 0
29 -23 -17 0
-22 -35 -10 0
-48 -14 -16 0
-37 6 -22 0
-2 38 29 0
28 -33 13 0
3 9 7 0
30 -15 19 0
19 11 -2 0
-22 23 25 0
18 -6 -5 0
-28 17 41 0
-36 30 -15 0
-44 -12 10 0
24 -50 7 0
-1 20 3 0
23 44 -35 0
19 31 38 0
30 -28 -37 0
47 -14 39 0
-23 22 -12 0
-40 9 -50 0
-47 4 21 0
11 -8 13 0
9 21 -3 0
-27 42 -29 0
-17 18 -16 0
-5 -2 -37 0
-18 -25 34 0
16 -22 -7 0
32 10 -14 0
49 -10 -21 0
5 38 41 0
32 -7 5 0
-40 24 34 0
41 -27 -2 0
35 4 -39 0
-1 -15 -34 0
-27 -24 37 0
-45 -27 43 0
-41 -3 -43 0
16 -48 -24 0
13 -4 18 0
-28 23 -40 0
38 -35 -12 0
-4 38 -5 0
-36 17 4 0
6 27 -4 0
12 36 -49 0
-21 42 -25 0
21 14 -16 0
-33 43 18 0
5 24 -31 0
-47 45 -4 0
4 -38 -1 0
-26 12 46 0
3 29 -28 0
-7 -20 11 0
-27 -39 29 0
-46 12 -14 0
23 18 33 0
50 -5 30 0
38 -40 44 0
-23 9 24 0
-19 29 -41 0
-34 -6 -22 0
-13 -18 -45 0
38 -26 -42 0
25 -30 50 0
9 12 -36 0
-38 -2 6 0
