c Coffinhead hard-core n=50 seed=33 ratio=4.0
p cnf 50 200
14 50 5 0
-14 11 -38 0
-37 35 11 0
48 33 -38 0
37 30 -21 0
-17 20 -12 0
4 -17 19 0
-37 -27 2 0
-17 39 -40 0
-13 -43 -23 0
28 -10 11 0
-36 -29 50 0
31 3 32 0
43 16 12 0
11 -45 2 0
8 35 -30 0
37 35 -10 0
-24 50 -39 0
43 -19 37 0
32 -38 15 0
1 -18 -36 0
-36 -40 1 0
-42 -12 41 0
-41 -6 -23 0
-6 -13 -28 0
25 -9 46 0
-45 -44 22 0
-22 4 -45 0
-34 -26 38 0
42 17 43 0
-21 -29 -5 0
-41 6 42 0
-32 2 22 0
-16 -13 9 0
-26 -7 10 0
4 -42 -33 0
-36 27 -7 0
4 42 -44 0
42 28 -48 0
-42 45 29 0
4 20 16 0
-4 27 10 0
20 6 -8 0
-5 -43 -22 0
-5 -32 -39 0
43 6 49 0
-36 16 12 0
2 -28 -43 0
27 -48 -40 0
-10 46 5 0
-16 21 13 0
42 30 -35 0
9 -2 49 0
-18 1 48 0
48 27 -33 0
-27 15 -21 0
34 8 42 0
-12 -48 24 0
-26 -17 20 0
-4 6 35 0
-5 -1 -2 0
-45 -38 36 0
9 18 -37 0
14 25 -49 0
2 30 -14 0
-37 44 -34 0
7 -20 -24 0
45 48 -5 0
-3 19 -15 0
-11 15 -26 0
6 -24 -23 0
-15 -4 -33 0
-48 -21 -15 0
-50 -43 -7 0
-29 -25 15 0
-36 -31 46 0
33 -45 35 0
-20 -18 48 0
9 -15 -23 0
34 26 20 0
14 27 -33 0
13 -6 7 0
-18 -6 13 0
12 -49 3 0
49 18 -29 0
-27 -30 -29 0
-45 46 -6 0
15 14 -40 0
-9 25 -39 0
-26 49 -46 0
-48 43 -22 0
-14 20 -22 0
-3 -26 -38 0
2 -39 18 0
40 -38 -24 0
46 -9 -13 0
-28 46 -25 0
-22 -21 -29 0
19 27 -5 0
40 21 35 0
47 3 31 0
-42 -35 16 0
-4 -24 -12 0
12 22 -8 0
20 44 -11 0
12 11 50 0
45 46 7 0
-7 33 -10 0
25 -9 38 0
3 13 -21 0
-34 42 27 0
-24 42 4 0
31 2 -23 0
39 -41 2 0
-16 -9 2 0
-4 -25 26 0
-8 21 -28 0
-18 -21 26 0
-7 -40 -21 0
11 27 -8 0
-6 -5 12 0
-18 46 9 0
22 34 -3 0
-17 -42 34 0
-47 -26 -31 0
-16 -29 -30 0
22 -16 50 0
35 48 -20 0
30 -25 13 0
-32 8 -15 0
26 -7 12 0
-40 -46 -26 0
-39 -20 -44 0
-40 -10 -35 0
-36 19 -1 0
-47 -49 -12 0
-28 48 2 0
-29 35 45 0
42 38 -25 0
20 -13 -26 0
33 -1 44 0
-7 43 48 0
-26 -34 28 0
6 -21 38 0
-30 33 25 0
10 -15 -28 0
32 21 37 0
23 4 17 0
5 13 2 0
-29 47 33 0
-4 -34 49 0
43 30 31 0
-34 27 -22 0
43 -13 -12 0
-38 -33 -12 0
5 -43 12 0
23 9 -28 0
38 -5 37 0
-16 -47 19 0
-22 -29 13 0
37 33 12 0
17 -9 -31 0
44 -11 25 0
8 -3 15 0
21 9 38 0
-28 -30 1 0
20 -49 -19 0
-29 -13 4 0
18 -8 46 0
-41 -38 33 0
-17 -1 -31 0
-1 -35 19 0
37 35 -21 0
-38 -4 34 0
-48 24 39 0
-14 11 48 0
22 21 -44 0
-44 -14 -16 0
37 23 -32 0
46 11 -21 0
-8 25 -29 0
37 -31 -6 0
-6 -34 -50 0
-27 24 -13 0
33 -31 -14 0
-34 -5 22 0
-25 23 47 0
32 38 -13 0
36 24 34 0
9 -29 -50 0
-27 -6 -33 0
-14 -39 -48 0
29 -1 42 0
38 -34 -1 0
38 -44 32 0
27 20 -36 0
14 -5 12 0
46 3 -20 0
9 -26 23 0
35 -30 47 0
