c Coffinhead hard-core n=50 seed=13 ratio=4.0
p cnf 50 200
44 22 25 0
-45 -13 -40 0
12 -46 -10 0
-1 48 -34 0
45 19 -9 0
-19 45 -11 0
44 -9 41 0
19 -16 28 0
-47 29 5 0
-24 40 -15 0
-20 31 -45 0
29 -48 20 0
9 -38 22 0
-19 14 -18 0
31 -47 16 0
-30 4 20 0
45 41 -2 0
13 39 -20 0
5 -4 49 0
-37 26 -28 0
-14 -4 -16 0
-23 -30 24 0
39 13 -14 0
28 -37 50 0
-33 -17 -23 0
-15 9 22 0
16 9 33 0
-11 -41 38 0
27 11 -48 0
-17 4 -5 0
4 -23 40 0
-23 -19 12 0
49 -12 -7 0
10 7 -12 0
19 13 -17 0
-6 2 3 0
-39 30 16 0
2 25 37 0
33 -40 2 0
-29 -27 1 0
-27 37 28 0
-18 -39 -1 0
28 -6 46 0
-21 -49 -11 0
25 -48 -35 0
31 -18 -43 0
-12 -4 27 0
-38 50 12 0
-18 -6 9 0
-18 13 22 0
15 -2 -50 0
-17 -2 -45 0
-35 -10 21 0
10 -13 7 0
37 -8 10 0
19 -10 -14 0
-32 -30 -3 0
43 -49 15 0
-47 -16 -43 0
2 24 19 0
38 -1 23 0
10 2 -18 0
11 24 16 0
39 26 41 0
-27 31 -50 0
-16 -9 48 0
41 7 3 0
7 1 15 0
37 45 -30 0
39 32 -23 0
35 -11 -7 0
-34 44 36 0
10 -20 13 0
20 7 -28 0
-24 38 -25 0
-7 18 15 0
-9 -38 -42 0
30 -4 27 0
-22 -41 -37 0
16 3 50 0
-6 -12 22 0
20 44 -15 0
18 -23 6 0
35 -27 34 0
19 8 -41 0
18 -34 -8 0
-32 -8 -26 0
47 36 23 0
48 34 9 0
20 -50 49 0
34 -50 -25 0
-38 37 -23 0
-23 -24 2 0
-32 15 -37 0
12 -36 -27 0
-37 -20 39 0
30 -1 -45 0
-43 -13 -12 0
-1 -16 -35 0
-7 -29 -19 0
-50 -41 -8 0
44 -12 50 0
35 19 -36 0
4 37 -23 0
35 47 5 0
-22 17 31 0
-12 9 -13 0
30 5 34 0
-2 24 33 0
-36 -45 -40 0
-12 26 -27 0
-5 40 28 0
37 -32 -6 0
-25 49 2 0
9 5 7 0
-46 14 18 0
-5 11 -34 0
-7 1 -39 0
-48 -13 10 0
24 -4 -13 0
-40 32 37 0
-50 -47 -35 0
30 1 -15 0
4 3 17 0
-42 -21 45 0
48 46 -32 0
22 9 -26 0
-47 50 -37 0
17 -46 37 0
-20 12 -21 0
-24 -32 41 0
-15 40 -2 0
-9 25 -41 0
13 -39 20 0
10 -34 -19 0
-24 45 -27 0
29 3 22 0
13 8 -15 0
-48 -32 -42 0
13 -6 31 0
-45 -1 6 0
26 -9 41 0
21 11 41 0
-26 -42 -3 0
35 -49 14 0
26 -20 -34 0
-38 30 -2 0
42 50 30 0
-27 -40 -49 0
-31 -47 -50 0
30 -32 -14 0
5 -19 -2 0
-29 16 -23 0
-9 -34 11 0
-5 -37 -4 0
40 -24 -22 0
6 -19 -13 0
-13 -19 -31 0
35 9 -34 0
-40 30 20 0
-9 50 -32 0
-32 34 -27 0
29 -16 -36 0
-12 33 3 0
-19 -32 -28 0
47 -12 -19 0
-42 24 -49 0
-47 17 -28 0
39 21 -25 0
19 -21 31 0
7 50 17 0
-22 43 40 0
5 -4 -23 0
-7 -10 -36 0
32 39 13 0
-6 -12 49 0
19 -48 -25 0
7 15 31 0
-44 -17 13 0
28 4 -12 0
-45 26 -11 0
41 20 40 0
-35 -21 38 0
-30 -48 -12 0
-27 39 -40 0
-42 -33 -18 0
-6 11 -28 0
-9 -46 -13 0
39 29 -28 0
-35 -24 -39 0
-45 -22 11 0
-2 -5 -25 0
20 6 32 0
-47 -37 -7 0
-40 14 -31 0
4 -16 -17 0
44 -34 7 0
-14 38 18 0
-25 -41 -36 0
50 39 49 0
