c Coffinhead hard-core n=50 seed=41 ratio=4.0
p cnf 50 200
2 34 6 0
24 -26 21 0
10 36 35 0
-23 -50 17 0
44 28 -49 0
34 19 4 0
18 -12 -44 0
-35 17 -14 0
12 -41 -3 0
16 24 -41 0
15 23 -19 0
-44 -5 11 0
-27 3 -10 0
11 39 -6 0
38 47 -13 0
-49 -45 -1 0
23 -43 40 0
21 5 -15 0
-42 -14 31 0
19 -47 -41 0
-5 37 12 0
37 -45 29 0
9 -27 49 0
-33 -4 -5 0
20 2 45 0
-34 -13 47 0
-12 -43 7 0
23 -1 -21 0
-38 31 -30 0
45 27 20 0
-33 45 41 0
-4 40 -39 0
-8 17 22 0
8 30 25 0
-19 47 -43 0
-22 34 36 0
25 37 -35 0
18 3 -36 0
34 13 46 0
-12 4 26 0
-45 -29 -49 0
8 -22 25 0
-12 45 -5 0
8 -42 -45 0
6 7 35 0
4 23 1 0
3 -41 -47 0
9 5 -17 0
-26 -10 -49 0
17 6 -45 0
30 -13 23 0
30 25 -10 0
-2 13 -15 0
41 -34 35 0
13 3 -33 0
12 -14 -50 0
-34 -40 -8 0
3 -12 34 0
-4 3 27 0
-45 -43 -4 0
-25 39 -12 0
14 -16 -50 0
47 -25 -48 0
-16 40 39 0
13 3 7 0
31 -44 -46 0
17 -42 3 0
-23 35 42 0
35 -28 14 0
-18 -20 -16 0
-35 -32 23 0
-9 -16 29 0
3 25 -24 0
26 -6 -20 0
-28 -8 -34 0
-18 43 49 0
-12 -27 35 0
25 -26 -36 0
47 -15 27 0
35 45 5 0
26 -48 3 0
-28 -27 -22 0
-7 -14 10 0
46 26 14 0
26 -41 -46 0
-44 11 47 0
-35 -27 32 0
37 46 2 0
39 16 38 0
4 -34 48 0
-31 13 10 0
-38 43 -34 0
22 -31 38 0
-43 40 -46 0
-41 12 -23 0
3 27 -26 0
17 -25 19 0
20 44 -1 0
20 -4 37 0
-29 -38 -46 0
-22 -1 -10 0
-48 -9 22 0
-12 2 42 0
49 -5 -35 0
21 34 -49 0
16 -23 -26 0
10 36 -5 0
-32 -42 -17 0
28 29 24 0
-37 25 27 0
14 37 -4 0
35 41 -22 0
16 15 35 0
12 -22 10 0
-9 -38 4 0
49 -35 -27 0
-36 41 9 0
5 35 -8 0
12 31 -9 0
-23 -27 39 0
33 1 -50 0
20 4 -5 0
41 -24 -50 0
24 43 26 0
13 37 2 0
-14 -31 44 0
34 -21 -29 0
-14 4 -36 0
-45 34 -3 0
21 -37 -11 0
-48 -45 -26 0
9 47 19 0
21 42 -6 0
-10 -14 8 0
2 -43 15 0
-13 5 -17 0
39 2 35 0
-16 -14 47 0
-23 21 -38 0
-48 -41 -32 0
-35 -4 -37 0
-35 44 -39 0
-35 -11 13 0
30 -18 -28 0
24 -27 -36 0
-5 -49 50 0
-32 -46 23 0
42 18 11 0
-9 50 4 0
-21 8 -33 0
39 42 48 0
-46 -9 -43 0
39 -22 -37 0
34 35 -19 0
15 -49 42 0
49 8 -9 0
4 26 14 0
14 42 45 0
22 47 -28 0
39 8 24 0
-18 -29 42 0
49 -21 36 0
44 -22 26 0
-22 -15 -3 0
16 -2 3 0
6 -24 -18 0
44 -20 -11 0
27 50 24 0
-24 22 49 0
-19 -20 42 0
12 36 -5 0
-9 -7 -4 0
-13 22 38 0
-15 -37 -4 0
18 -27 -10 0
-9 -7 12 0
3 42 24 0
7 -11 -3 0
41 -2 20 0
31 -10 -6 0
-3 -28 6 0
15 21 6 0
34 20 22 0
-13 -8 41 0
-18 8 -32 0
-39 -30 15 0
39 -36 10 0
30 -41 32 0
37 47 20 0
-5 47 35 0
-24 18 34 0
34 -45 -8 0
-47 4 17 0
43 -44 -46 0
-11 7 -3 0
48 39 43 0
-50 18 9 0
14 -11 25 0
15 16 -34 0
5 35 -3 0
