c Coffinhead hard-core n=50 seed=5 ratio=4.0
p cnf 50 200
6 2 -49 0
-3 -20 -39 0
-23 7 9 0
22 20 -19 0
-10 23 -44 0
40 33 -21 0
49 -11 38 0
32 44 -1 0
9 45 -16 0
5 -27 -21 0
-10 14 -41 0
-29 -38 36 0
22 27 -5 0
-3 -35 26 0
1 20 14 0
-38 -20 29 0
-39 -34 -12 0
-4 -10 22 0
15 -18 -45 0
49 35 -20 0
48 -36 35 0
25 7 39 0
-23 33 -48 0
32 41 18 0
-30 -33 45 0
34 -7 16 0
-12 31 8 0
3 -34 43 0
-3 4 -40 0
45 -49 33 0
29 26 -24 0
-40 -35 39 0
25 10 -41 0
38 -29 -27 0
-18 31 -27 0
41 -46 35 0
-25 -46 -48 0
-13 40 -26 0
-34 -30 -38 0
-16 4 37 0
-6 8 37 0
-37 -48 -20 0
5 -36 -42 0
28 22 4 0
-32 11 -9 0
-46 50 -26 0
-30 37 35 0
-41 -45 -44 0
-47 13 -49 0
10 12 1 0
-16 24 -10 0
38 19 -3 0
-27 -41 4 0
39 -25 11 0
47 -31 -48 0
6 23 30 0
-34 -47 -27 0
20 -33 -22 0
10 -41 47 0
8 -6 -3 0
10 41 28 0
-30 -48 21 0
9 -30 2 0
6 24 4 0
-49 35 22 0
42 18 48 0
27 26 -31 0
26 13 1 0
-13 28 34 0
50 38 27 0
18 -6 10 0
23 -12 46 0
8 -21 9 0
-14 5 36 0
23 4 -13 0
-21 19 43 0
24 45 -18 0
3 38 47 0
18 -21 -12 0
50 -17 -22 0
6 -15 33 0
1 -26 -3 0
15 -7 1 0
-28 -12 22 0
-26 -38 -50 0
-47 9 33 0
-39 -44 -18 0
-8 9 -29 0
-32 17 -3 0
-6 -13 -14 0
-48 23 -35 0
16 45 -46 0
1 41 21 0
2 -27 -12 0
50 43 25 0
-2 -49 44 0
44 -49 -9 0
10 19 -46 0
23 -39 7 0
-35 -24 38 0
22 -16 15 0
32 3 -24 0
-5 37 38 0
-4 5 -39 0
5 -2 -35 0
-7 -47 -22 0
-23 4 -42 0
-33 -30 -25 0
36 43 6 0
14 -41 -46 0
5 4 -35 0
11 8 39 0
-23 28 20 0
-10 11 -43 0
-10 30 -28 0
26 43 -17 0
-19 -1 -42 0
46 41 17 0
31 27 -50 0
-13 -8 37 0
-11 20 15 0
19 12 36 0
38 43 20 0
14 49 -12 0
-49 2 50 0
23 20 -25 0
14 45 19 0
38 -34 -37 0
43 11 -1 0
-8 -50 1 0
-45 15 22 0
-4 -38 13 0
7 31 1 0
39 50 22 0
-27 -15 20 0
-24 31 -45 0
-35 -13 20 0
-14 18 45 0
50 -28 -1 0
45 -42 38 0
-5 7 46 0
48 13 2 0
14 12 36 0
23 -1 36 0
45 -37 36 0
-43 34 30 0
32 1 14 0
-15 42 48 0
-46 -6 -20 0
-41 -42 29 0
13 -48 -37 0
15 -32 41 0
23 38 -47 0
42 8 32 0
9 -23 -8 0
30 -36 18 0
-28 -5 -2 0
13 -38 -11 0
48 -34 45 0
11 -43 -6 0
-38 13 -44 0
-28 -48 -39 0
43 -26 5 0
8 -7 25 0
32 -30 35 0
-44 -49 -23 0
29 35 -32 0
2 48 36 0
-44 -10 26 0
29 41 -22 0
25 45 -24 0
50 43 -10 0
-22 17 -6 0
-4 14 -13 0
-31 27 7 0
25 -17 -27 0
-5 21 19 0
36 -3 -11 0
14 -28 -39 0
-45 -28 -47 0
27 -35 -41 0
26 -19 18 0
-45 -4 50 0
-7 -35 17 0
39 -41 19 0
-36 -25 -2 0
-34 35 10 0
-15 1 -22 0
-46 -31 1 0
17 34 -15 0
27 -26 32 0
3 12 27 0
14 1 27 0
-17 -38 -18 0
-26 -10 -18 0
22 26 -46 0
19 38 -33 0
42 20 -49 0
-20 -28 50 0
-8 43 -15 0
