c Coffinhead hard-core n=50 seed=9 ratio=4.0
p cnf 50 200
50 24 -40 0
2 -9 28 0
-6 -44 -13 0
43 33 26 0
28 6 -48 0
44 -9 25 0
-4 2 25 0
-7 24 12 0
28 -10 -43 0
-12 -23 -10 0
-15 -24 7 0
-36 29 -41 0
36 19 -3 0
23 15 -3 0
12 38 33 0
-22 4 -36 0
-32 -8 6 0
-7 3 5 0
10 20 4 0
22 -50 5 0
3 -44 2 0
-16 -43 -32 0
-46 -15 -33 0
-10 -42 -24 0
23 -6 -3 0
37 -35 30 0
-5 47 33 0
-36 -25 -22 0
-26 19 -41 0
-14 39 -11 0
15 7 -17 0
-17 11 49 0
-50 49 -14 0
-27 2 -21 0
-18 -44 20 0
9 36 38 0
-47 -28 -38 0
-42 -43 -34 0
-11 48 18 0
11 3 -49 0
-4 24 -49 0
31 39 -41 0
-38 -14 9 0
-42 -40 31 0
-43 16 -11 0
-24 -14 32 0
-31 21 -2 0
25 38 47 0
-5 24 -9 0
14 21 24 0
-48 34 24 0
28 -13 29 0
35 -40 -14 0
-17 35 -29 0
36 21 -35 0
29 -24 -12 0
26 -22 10 0
46 25 40 0
23 -5 -19 0
-31 37 -24 0
26 -22 -39 0
45 2 8 0
-8 -14 -49 0
-48 -43 31 0
19 36 34 0
-4 -14 34 0
-21 20 14 0
-6 15 19 0
-26 4 1 0
-33 -25 6 0
-11 17 -23 0
-1 49 20 0
-46 21 31 0
13 -36 49 0
-26 -32 27 0
13 -34 -19 0
47 24 42 0
-50 -26 -45 0
11 -19 45 0
-18 25 -28 0
2 -10 -17 0
7 6 13 0
20 -9 -42 0
-14 18 -17 0
42 29 -11 0
44 43 -28 0
24 38 25 0
19 5 12 0
-25 -41 -35 0
23 14 -4 0
33 -44 16 0
45 -50 -30 0
-22 11 42 0
-16 -7 44 0
-50 -22 -36 0
6 29 -33 0
-27 -24 -34 0
-43 15 10 0
-7 -18 39 0
25 50 -1 0
46 1 -20 0
25 39 11 0
-44 47 18 0
-17 -13 7 0
33 -41 -12 0
-13 14 40 0
31 50 -33 0
31 24 -16 0
10 -39 -31 0
-49 27 15 0
-29 -1 -33 0
14 15 -47 0
-23 -4 33 0
21 17 -41 0
6 -46 16 0
44 48 -25 0
-31 14 36 0
25 5 6 0
9 19 27 0
39 11 -31 0
39 -42 -12 0
5 -14 -20 0
25 43 9 0
31 42 33 0
-24 35 48 0
-31 -5 2 0
-40 -1 -14 0
-33 -36 5 0
31 -14 -23 0
-24 -38 12 0
-35 -38 31 0
-36 -22 -5 0
-5 12 17 0
-20 -29 4 0
-26 24 35 0
-43 -22 -1 0
34 48 23 0
-12 19 -42 0
-35 10 18 0
-50 13 -23 0
25 -9 -46 0
-3 16 29 0
8 25 -15 0
43 -28 -24 0
17 30 -14 0
-24 -27 -37 0
-2 4 -5 0
-5 -46 31 0
-36 35 -14 0
24 40 37 0
-41 -49 -24 0
-7 22 26 0
-1 -6 22 0
46 2 38 0
-29 -33 -40 0
-38 16 -19 0
7 -48 -19 0
13 35 -29 0
-8 9 -5 0
48 45 -42 0
23 5 -15 0
31 -46 -42 0
-13 36 -38 0
19 4 10 0
-4 48 37 0
-48 -38 -30 0
42 -18 -16 0
18 -38 -1 0
43 37 32 0
-38 25 18 0
48 -21 18 0
1 -17 19 0
-2 19 -33 0
22 -16 -2 0
45 -37 10 0
9 21 11 0
4 30 -25 0
-15 40 -30 0
-24 -42 -12 0
17 -27 37 0
-17 48 -27 0
37 -4 -26 0
-2 21 5 0
-7 -14 30 0
-46 -45 2 0
4 -29 -11 0
42 -41 -37 0
-50 -44 -26 0
-47 -15 -10 0
1 -39 21 0
18 43 33 0
14 -24 -38 0
9 -11 23 0
-6 43 12 0
42 40 31 0
50 5 -14 0
20 35 -46 0
-24 1 14 0
40 42 17 0
15 -31 -38 0
