c Coffinhead hard-core n=50 seed=10 ratio=4.0
p cnf 50 200
11 -47 -37 0
-10 6 -21 0
-12 -38 -27 0
28 13 -16 0
20 -28 -24 0
10 11 -40 0
24 -30 -45 0
12 39 46 0
-15 -17 -32 0
-15 -36 -23 0
44 -48 18 0
-37 44 17 0
-8 6 -26 0
32 28 18 0
38 11 43 0
-26 2 47 0
5 -26 14 0
21 -22 -48 0
38 -45 20 0
47 -5 21 0
-16 43 44 0
-36 23 29 0
-25 -12 -18 0
-17 -21 44 0
-26 -7 -16 0
-12 -45 42 0
17 -18 -50 0
-40 2 -48 0
27 29 23 0
31 25 13 0
26 43 -32 0
-7 26 -46 0
1 48 35 0
30 -15 -13 0
5 22 42 0
6 26 20 0
14 -46 -16 0
-41 5 -29 0
11 29 -47 0
29 14 28 0
-50 8 17 0
-46 -25 30 0
35 -14 -12 0
-31 29 -3 0
-34 1 29 0
-47 48 24 0
35 43 50 0
2 41 -49 0
33 -7 40 0
-37 38 -49 0
38 -40 -50 0
11 24 -41 0
-26 -44 25 0
23 -6 33 0
36 3 -23 0
35 -28 -26 0
48 -9 49 0
-34 -13 5 0
-43 -17 29 0
4 7 23 0
-49 44 -35 0
-3 26 -18 0
40 7 -8 0
26 -18 -7 0
-30 -41 -44 0
3 5 -44 0
1 4 -29 0
42 -12 -18 0
-23 18 14 0
-40 -43 -30 0
13 41 -12 0
42 8 29 0
47 30 16 0
-36 39 29 0
7 33 17 0
17 40 31 0
-4 8 3 0
16 -38 -3 0
22 -37 -3 0
-6 9 22 0
-31 29 20 0
-32 8 44 0
-46 -44 -28 0
-41 6 31 0
10 -11 30 0
37 -10 -46 0
15 -39 38 0
48 -50 -12 0
27 -9 -50 0
-12 -21 24 0
-50 -9 -14 0
44 50 -6 0
-35 18 -23 0
16 36 -37 0
40 8 -2 0
25 19 46 0
-44 -26 -6 0
-1 -44 17 0
-24 -38 19 0
9 24 4 0
2 -15 31 0
16 -8 -36 0
-11 -28 -30 0
-50 12 -48 0
1 -25 44 0
-44 31 18 0
-48 -6 -1 0
35 47 37 0
-16 -37 -5 0
-18 10 31 0
-34 13 15 0
-1 37 -43 0
36 -28 43 0
3 33 -14 0
41 34 11 0
-31 13 -32 0
16 -35 26 0
-21 -8 -50 0
-46 10 -28 0
-50 -18 -20 0
-17 -22 16 0
10 12 -36 0
2 37 -36 0
34 -8 -17 0
-33 -3 -47 0
-2 -36 11 0
44 -28 -2 0
-6 2 24 0
-18 31 28 0
-48 -5 32 0
14 -13 -2 0
-32 -20 -3 0
-14 17 -1 0
-40 -33 -9 0
37 -16 -46 0
36 44 -12 0
46 -32 -15 0
7 12 -49 0
-7 -40 -46 0
-12 3 -31 0
40 48 -4 0
-23 13 8 0
-37 -48 19 0
14 -30 41 0
-9 -48 24 0
43 -26 -29 0
-45 48 36 0
4 -5 25 0
15 -38 31 0
26 37 -8 0
29 -24 7 0
28 -5 -16 0
11 -12 8 0
24 48 7 0
14 33 21 0
26 -3 -47 0
-10 -24 -22 0
34 1 -41 0
-45 -10 22 0
19 -6 -23 0
-36 35 5 0
-17 26 28 0
-21 35 30 0
-46 -30 -14 0
35 24 9 0
-35 -21 -16 0
-5 25 -21 0
14 25 34 0
32 25 -39 0
-14 11 -20 0
12 -42 6 0
-14 28 46 0
-36 22 -4 0
-41 39 -20 0
47 32 35 0
3 50 8 0
30 33 9 0
-32 2 -8 0
32 34 8 0
-29 33 -45 0
24 14 36 0
-7 -22 13 0
-32 -29 36 0
-47 17 38 0
-17 -21 -36 0
-42 -4 9 0
-40 -7 -21 0
-17 -42 -45 0
-21 22 -9 0
46 24 48 0
5 -10 -14 0
-28 -16 4 0
7 -35 34 0
29 15 -48 0
-48 -16 36 0
33 -6 -31 0
6 -47 -29 0
36 -28 -5 0
5 -29 7 0
-17 -8 -4 0
