c Coffinhead hard-core n=50 seed=6 ratio=4.0
p cnf 50 200
17 -23 -8 0
29 23 28 0
-31 33 5 0
13 24 17 0
-50 -31 -16 0
50 -15 38 0
-19 15 -6 0
-49 25 -43 0
-6 36 -23 0
28 -2 -46 0
25 20 -8 0
-48 -11 -40 0
-18 28 -16 0
-34 -42 -1 0
11 3 -44 0
38 -25 39 0
-35 26 -39 0
-41 -47 24 0
16 4 -48 0
-47 -13 -18 0
-18 45 48 0
19 27 -16 0
40 -39 18 0
-42 -37 30 0
25 44 -3 0
-36 -34 42 0
-38 -18 -47 0
48 28 18 0
9 29 -40 0
-42 -24 27 0
-22 30 50 0
-6 33 -17 0
-32 -13 19 0
-37 -34 -24 0
2 9 -14 0
-41 -44 35 0
39 -25 23 0
44 28 -34 0
-42 -10 -7 0
-21 -35 34 0
5 44 23 0
7 35 10 0
-42 45 -12 0
-3 31 -7 0
14 30 -2 0
22 33 18 0
-8 -15 39 0
5 -10 -11 0
33 -23 14 0
-29 -19 20 0
31 -24 50 0
-6 4 15 0
4 44 -14 0
19 -16 -17 0
-7 -38 14 0
39 34 -6 0
-45 -20 39 0
1 22 21 0
35 17 -38 0
39 -17 38 0
-25 -32 37 0
-3 -22 -16 0
-31 49 -43 0
-49 -29 16 0
-21 -23 -40 0
22 2 3 0
2 -1 -33 0
-40 19 7 0
-50 -29 -24 0
-11 -15 -49 0
-14 42 -24 0
16 -38 -12 0
-31 38 -1 0
10 29 -12 0
26 -1 40 0
-4 -23 7 0
44 -31 -17 0
-24 -7 40 0
-47 -17 -16 0
4 44 -22 0
43 10 -8 0
-5 -44 20 0
-15 -45 23 0
-3 35 -9 0
-8 37 -38 0
-39 1 27 0
26 -16 -13 0
41 36 -46 0
-17 -43 11 0
-8 48 18 0
9 19 23 0
48 -31 14 0
15 -44 32 0
45 -42 -6 0
-1 2 22 0
-11 -35 2 0
39 -4 -48 0
38 10 45 0
22 6 -32 0
17 -49 2 0
16 9 -43 0
25 -9 -2 0
10 49 50 0
2 11 9 0
-33 40 17 0
-34 47 29 0
-15 -37 36 0
43 29 20 0
44 -34 49 0
17 26 8 0
-28 -44 -43 0
27 50 -16 0
19 -9 40 0
-13 41 23 0
22 -17 43 0
-20 21 -30 0
46 -31 -50 0
-24 46 11 0
46 -22 -49 0
-50 49 -27 0
-45 -31 6 0
-20 8 17 0
15 -29 45 0
-25 20 -2 0
-20 -7 6 0
25 -18 -16 0
14 33 2 0
26 19 49 0
15 36 -43 0
-11 40 32 0
-50 19 -42 0
13 14 26 0
-39 41 24 0
-49 40 -24 0
32 10 -13 0
30 -16 -11 0
-28 -21 49 0
21 44 -39 0
-6 -12 34 0
23 7 -35 0
19 -50 -32 0
38 29 26 0
-26 25 36 0
-10 -46 11 0
11 17 13 0
-34 -36 -29 0
-9 -28 2 0
15 6 48 0
-32 -25 43 0
13 -37 11 0
37 48 23 0
33 41 -25 0
-31 34 4 0
-35 -44 -37 0
-46 17 -23 0
12 -30 -9 0
-38 26 -24 0
-32 -48 -47 0
37 -8 -39 0
2 32 -45 0
35 -49 -31 0
45 18 -17 0
-29 -40 -46 0
21 -7 4 0
28 22 30 0
43 10 -50 0
11 16 26 0
-6 -47 48 0
-19 -25 12 0
28 20 -41 0
-6 42 38 0
-18 -40 -15 0
-9 21 2 0
34 49 48 0
34 39 -9 0
-40 -19 11 0
-11 -15 -41 0
-32 11 15 0
-6 -2 14 0
-50 48 -17 0
47 -12 15 0
-50 -44 8 0
6 34 25 0
-5 -10 -22 0
3 -12 -15 0
28 33 -39 0
26 16 39 0
-49 23 -25 0
-38 -40 -1 0
-34 -21 -19 0
10 4 -9 0
-6 -47 10 0
19 -31 39 0
44 32 24 0
27 20 -25 0
40 -27 -18 0
32 -28 -35 0
3 45 -1 0
-3 -22 -43 0
-30 -26 28 0
