c Coffinhead hard-core n=50 seed=16 ratio=4.0
p cnf 50 200
-27 35 18 0
-44 -47 -25 0
-42 -4 18 0
-45 -33 8 0
-11 -16 -48 0
-28 -10 34 0
-29 6 -5 0
-22 47 -49 0
-40 -15 12 0
14 -18 -40 0
33 47 -24 0
-38 -13 4 0
-42 7 -18 0
-3 40 6 0
-11 44 -42 0
34 24 -8 0
-23 -46 50 0
40 -18 -28 0
10 -34 -23 0
-5 10 46 0
13 11 26 0
21 -15 8 0
-5 13 -8 0
16 -18 -6 0
-40 20 -26 0
44 -17 -11 0
20 9 31 0
-36 31 18 0
-21 -6 -9 0
47 31 41 0
39 32 -29 0
-33 -36 11 0
-44 16 -11 0
-45 -41 1 0
-48 10 -22 0
14 -44 -11 0
-23 -41 18 0
-50 24 -32 0
11 29 -48 0
22 9 -20 0
-9 -34 35 0
-46 -13 5 0
27 34 18 0
-31 14 -8 0
3 23 -12 0
41 -15 48 0
1 13 27 0
-47 -5 -12 0
12 41 -15 0
-3 -41 27 0
26 18 24 0
19 -22 30 0
38 33 -30 0
40 -23 39 0
-24 49 44 0
29 43 -37 0
-36 -4 -15 0
-14 11 -4 0
-12 -3 -39 0
-19 33 -49 0
-13 40 31 0
15 36 -10 0
-35 27 -8 0
-4 16 -9 0
38 49 15 0
44 -19 40 0
4 39 -17 0
-30 37 13 0
-33 -17 6 0
-1 6 -39 0
-32 -27 49 0
42 31 20 0
9 -45 -10 0
-40 8 -12 0
39 -28 50 0
26 14 -48 0
21 -19 20 0
-2 13 7 0
-47 33 19 0
18 -38 -43 0
47 -6 -22 0
10 42 41 0
-45 37 -33 0
17 -41 13 0
-42 -49 13 0
-1 -39 27 0
-44 -48 20 0
-23 4 -1 0
20 -18 -25 0
-30 -36 12 0
-38 -13 3 0
-8 24 -25 0
-32 -11 33 0
33 -21 -12 0
18 -44 11 0
-11 41 4 0
36 3 -17 0
39 -35 34 0
-29 33 43 0
-40 29 8 0
-24 40 5 0
33 -43 47 0
12 -50 -1 0
-34 8 -33 0
-26 42 10 0
-39 25 30 0
39 -6 -50 0
12 18 -7 0
-23 14 -29 0
35 -49 -12 0
31 -1 35 0
6 -11 9 0
38 2 -39 0
25 41 -6 0
39 -46 -48 0
25 -3 -32 0
-49 50 -34 0
47 25 -2 0
44 29 -2 0
-8 -45 31 0
48 12 31 0
30 18 -5 0
-34 -28 -3 0
-44 -45 35 0
25 21 -4 0
31 10 -46 0
16 35 8 0
-11 44 -7 0
-43 -32 -3 0
3 -40 -29 0
-46 48 50 0
5 20 26 0
46 -17 -33 0
-41 -24 -26 0
-30 10 -17 0
-12 3 -50 0
-10 -23 11 0
22 -33 31 0
11 -37 -24 0
-24 -11 23 0
42 50 19 0
-30 -40 -24 0
-44 14 45 0
-16 -33 -45 0
-22 -42 -48 0
-39 -9 48 0
7 -13 18 0
7 -23 -20 0
-40 -28 43 0
-28 18 23 0
43 26 -50 0
13 26 -35 0
39 -6 11 0
-39 43 -42 0
-3 4 -38 0
40 -29 34 0
-2 26 18 0
26 -16 -37 0
-26 -31 44 0
23 -3 47 0
44 46 -5 0
-11 -39 6 0
38 19 12 0
-16 25 -32 0
-5 1 -25 0
-13 -35 8 0
-8 13 -17 0
-6 -15 -48 0
18 43 -50 0
-40 -43 33 0
26 37 -6 0
-37 -20 -33 0
42 32 -33 0
-38 23 -45 0
-43 33 -35 0
32 14 -33 0
5 -24 -33 0
15 12 46 0
28 30 13 0
27 -11 43 0
17 -26 -46 0
11 50 15 0
-40 45 47 0
29 -42 -32 0
-45 41 -8 0
-2 -21 -32 0
-30 -5 -13 0
38 -42 16 0
-34 -7 28 0
5 1 2 0
2 -39 -17 0
46 -44 28 0
-10 -37 -9 0
45 -27 43 0
-45 -16 -49 0
-26 20 8 0
16 -45 12 0
2 30 26 0
47 9 1 0
-48 38 -30 0
