c Coffinhead hard-core n=50 seed=17 ratio=4.0
p cnf 50 200
44 -38 -25 0
1 -24 17 0
14 32 -37 0
-4 45 -10 0
-39 13 -12 0
-4 33 -43 0
-35 13 -42 0
41 -14 -31 0
45 -27 39 0
-29 -44 -19 0
-6 36 -24 0
-22 12 50 0
12 -24 -38 0
-2 -28 6 0
4 45 -49 0
30 -4 -27 0
-35 37 13 0
18 -14 -5 0
2 -11 -10 0
10 -3 50 0
7 -6 -38 0
33 -29 -10 0
48 26 -9 0
-30 5 -38 0
-21 -2 -46 0
-7 -24 -41 0
-35 -17 -41 0
28 30 36 0
17 15 9 0
-1 5 -23 0
-26 41 -12 0
-44 4 19 0
14 46 -1 0
37 20 -44 0
-2 -40 -37 0
-13 16 -8 0
-14 33 -32 0
24 -6 23 0
-24 17 45 0
-39 26 -37 0
-5 27 -34 0
-15 25 8 0
34 2 -5 0
-45 -16 -26 0
39 -31 46 0
-39 23 34 0
-39 -48 10 0
-24 -9 -12 0
-4 -40 -13 0
-18 19 49 0
-27 -2 32 0
-13 15 -2 0
34 -47 2 0
-17 -6 -19 0
-44 -25 -10 0
45 -13 37 0
43 42 -20 0
49 38 19 0
11 46 42 0
-18 -34 -43 0
-7 -42 -39 0
14 19 -18 0
32 31 40 0
36 45 -6 0
46 -29 -16 0
23 2 22 0
40 6 34 0
41 42 -3 0
48 -21 37 0
-44 -17 40 0
-14 -47 5 0
23 -9 33 0
-5 20 25 0
-24 34 3 0
-24 -5 39 0
-47 -31 -11 0
-31 -5 3 0
47 -25 -35 0
-30 -40 -11 0
-27 -31 40 0
-43 -39 -11 0
-47 -14 1 0
33 36 12 0
23 -20 -12 0
26 33 31 0
45 -49 15 0
-3 36 -27 0
-48 -10 44 0
-48 35 22 0
-32 -27 40 0
34 24 -48 0
2 -40 -21 0
16 -45 12 0
-17 -45 29 0
-10 -24 -2 0
-12 21 5 0
-44 33 -16 0
49 -9 34 0
-49 29 23 0
-11 8 18 0
16 -48 -33 0
-45 -12 3 0
8 -2 22 0
32 11 -34 0
-18 -20 50 0
9 35 -44 0
11 -30 29 0
12 28 -6 0
-17 -5 22 0
-18 -24 -49 0
11 22 28 0
-22 -10 -17 0
48 20 46 0
34 46 -47 0
26 -4 -40 0
48 5 27 0
-42 38 -27 0
49 42 15 0
13 -44 -34 0
-36 -20 -8 0
-3 20 13 0
24 29 -12 0
-36 30 -22 0
-49 35 7 0
11 -7 13 0
50 29 46 0
-21 46 -19 0
14 -31 6 0
-46 20 3 0
-45 -38 43 0
-6 -47 -17 0
36 28 16 0
47 21 -27 0
17 8 -33 0
25 -28 -20 0
-48 -43 3 0
18 21 47 0
37 -48 -11 0
-3 12 -25 0
-9 -50 -35 0
-19 -27 1 0
-8 45 17 0
27 5 13 0
-12 27 33 0
-48 -31 -17 0
15 -7 -41 0
8 -7 -27 0
-21 15 26 0
22 12 -34 0
-50 -9 -18 0
25 29 -39 0
11 -7 -44 0
50 -32 7 0
-33 -6 -34 0
49 -33 13 0
-24 12 26 0
-18 21 30 0
-7 29 -36 0
-14 36 26 0
30 -5 16 0
22 12 49 0
-22 49 42 0
-8 23 44 0
37 2 -36 0
-21 -10 20 0
50 -25 -9 0
-11 40 -12 0
48 -4 33 0
43 -41 34 0
-50 21 -15 0
-49 32 -17 0
49 -3 -31 0
6 -43 37 0
39 -35 14 0
-8 -21 -49 0
-45 -19 49 0
1 32 -12 0
21 2 23 0
38 43 4 0
-37 -4 -9 0
20 -17 -5 0
-7 3 27 0
19 -6 -24 0
-22 27 35 0
-1 -3 -12 0
-24 12 -34 0
16 -7 -50 0
23 -34 7 0
-43 -39 32 0
8 -27 19 0
33 -8 41 0
-6 45 -7 0
-7 42 -37 0
-6 35 19 0
-43 16 3 0
-41 -4 -48 0
47 33 -35 0
-48 50 17 0
-1 45 -24 0
-9 49 -19 0
