c Coffinhead hard-core n=50 seed=30 ratio=4.0
p cnf 50 200
31 13 -35 0
10 18 45 0
13 -23 19 0
-48 2 -33 0
39 -50 -12 0
-20 -10 -35 0
-34 -16 -31 0
-43 21 14 0
1 26 -19 0
26 24 -29 0
-5 -37 -41 0
21 -49 24 0
-3 10 50 0
25 39 -11 0
-12 50 -25 0
-4 -29 48 0
-23 30 -17 0
42 -13 -39 0
15 -6 -16 0
-42 11 49 0
18 -38 -19 0
-25 29 -30 0
21 -22 19 0
24 16 50 0
-6 5 -23 0
-33 -29 -1 0
19 23 -15 0
-43 -49 46 0
-4 -15 40 0
15 43 39 0
39 -28 -25 0
13 -14 -12 0
25 -8 -50 0
23 39 -36 0
23 -31 14 0
-43 -34 -4 0
-25 -7 -29 0
14 -37 47 0
-15 27 -8 0
-27 25 24 0
-12 14 17 0
-35 47 -13 0
-24 19 8 0
14 4 42 0
34 32 -2 0
47 35 -40 0
-40 27 -6 0
-37 8 15 0
1 33 -17 0
-16 -42 -21 0
-40 35 -11 0
-30 4 50 0
44 28 23 0
24 -38 -9 0
-4 48 -16 0
-19 8 -21 0
3 42 13 0
-26 43 -15 0
-18 -22 49 0
-28 -47 7 0
10 45 49 0
-37 22 -16 0
2 29 42 0
1 -8 27 0
-39 41 16 0
44 -22 -19 0
35 -17 -19 0
-35 -7 -33 0
-38 -3 -15 0
48 27 50 0
19 43 -6 0
17 -12 49 0
-3 44 28 0
27 -48 3 0
-30 -50 -24 0
7 -28 49 0
-18 34 24 0
-46 -1 28 0
-21 5 40 0
37 -32 25 0
-5 47 -48 0
3 -41 -20 0
33 48 -43 0
-21 13 29 0
-49 26 -47 0
-2 20 3 0
32 -7 -29 0
-30 17 -40 0
30 -36 41 0
-38 2 -15 0
-17 27 2 0
11 14 43 0
-33 15 -17 0
21 -4 -44 0
28 24 -6 0
-35 -2 44 0
-5 37 44 0
30 -31 -21 0
48 -44 -30 0
-41 24 50 0
4 -42 6 0
-12 -50 -6 0
28 -4 20 0
16 -9 -40 0
33 25 -14 0
-31 18 39 0
17 -12 10 0
33 36 -50 0
-22 -49 26 0
-49 -2 -27 0
29 -43 -9 0
-18 16 -17 0
41 -29 -2 0
1 -33 32 0
-48 -37 -44 0
19 -15 47 0
30 37 44 0
33 -48 -23 0
34 49 -47 0
-9 16 -10 0
48 -32 -10 0
38 -6 -14 0
38 16 29 0
38 -14 31 0
43 -36 50 0
24 -37 -17 0
7 -31 -49 0
35 4 -37 0
-6 -35 4 0
40 -37 -23 0
1 -48 -40 0
-40 42 16 0
22 21 -33 0
-38 36 -19 0
15 -12 7 0
-38 -13 32 0
43 13 27 0
37 -2 4 0
8 34 -32 0
16 -39 34 0
35 41 -22 0
-36 -49 -24 0
-18 28 -41 0
23 -4 1 0
14 46 40 0
-21 -29 -43 0
42 -36 19 0
-47 45 38 0
-43 -24 7 0
-36 -9 -18 0
26 48 -1 0
-4 19 49 0
10 28 23 0
-23 -38 -42 0
-35 -25 -1 0
41 -12 -48 0
-11 21 45 0
13 48 -9 0
19 10 43 0
2 -25 -39 0
30 19 -43 0
-48 35 -13 0
-7 -31 15 0
47 -30 2 0
-22 -48 45 0
-21 11 47 0
-6 -24 11 0
37 11 23 0
39 31 -13 0
-30 4 -15 0
-28 43 -36 0
2 -10 21 0
28 33 -13 0
27 -13 30 0
44 -10 -25 0
-21 -23 49 0
50 14 -15 0
44 18 2 0
-1 -2 42 0
25 31 40 0
30 23 -35 0
43 -32 -38 0
10 41 29 0
-16 -15 41 0
23 6 -19 0
-13 -15 30 0
-36 30 28 0
41 26 -33 0
-40 35 -6 0
44 30 38 0
26 40 -5 0
-9 -39 -42 0
-1 -8 42 0
18 32 47 0
-19 -18 -44 0
5 -38 18 0
37 47 -24 0
-18 48 40 0
-15 44 12 0
44 15 23 0
