c Coffinhead hard-core n=50 seed=46 ratio=4.0
p cnf 50 200
19 -5 -12 0
31 21 24 0
-42 36 26 0
24 -37 39 0
21 -33 -40 0
-39 9 25 0
24 -27 10 0
-8 -12 -36 0
14 49 46 0
11 -10 -43 0
-5 -6 38 0
34 45 8 0
8 -21 12 0
-42 45 2 0
17 -49 25 0
-33 -21 23 0
43 49 19 0
10 -39 16 0
-48 -37 32 0
4 -47 -16 0
-25 -15 20 0
-18 31 11 0
31 18 33 0
44 50 -28 0
-8 -44 31 0
-4 -49 -47 0
-18 15 -32 0
-2 45 46 0
-41 -9 10 0
-41 -38 -18 0
47 -16 32 0
-43 38 20 0
5 34 12 0
-24 -41 17 0
25 20 24 0
24 -49 2 0
-22 -9 -11 0
45 -1 -43 0
38 -21 -45 0
40 12 39 0
28 -7 26 0
37 22 -27 0
-10 45 20 0
13 18 17 0
36 -4 3 0
2 18 47 0
6 -46 -34 0
-21 -47 -39 0
-49 39 -4 0
26 19 -50 0
15 -48 23 0
10 -40 1 0
33 43 -7 0
21 7 28 0
-16 -17 -8 0
-12 -13 20 0
43 21 -50 0
-44 30 42 0
18 -20 36 0
8 -13 23 0
-22 -4 -37 0
-13 -14 -17 0
-3 -19 -28 0
24 -44 -17 0
-7 -13 19 0
34 -23 -28 0
30 -44 -32 0
42 -18 5 0
15 2 -44 0
-39 -7 -3 0
-27 4 40 0
1 14 -33 0
-44 35 1 0
46 40 32 0
-26 22 21 0
-23 1 -27 0
-29 -43 46 0
44 28 -26 0
12 -6 10 0
-5 27 20 0
7 -10 18 0
13 -9 -1 0
-12 -26 7 0
22 35 -29 0
-43 35 -40 0
28 -36 20 0
-38 -1 -11 0
-19 -16 36 0
-8 -15 33 0
3 18 25 0
25 -19 1 0
47 -44 -45 0
-4 -44 -14 0
-21 27 -20 0
3 -2 -44 0
-3 2 -44 0
9 41 37 0
19 14 -37 0
-35 36 -40 0
45 -11 -12 0
-8 32 46 0
-13 21 -43 0
44 -10 -45 0
45 -50 -27 0
39 11 -34 0
22 50 -19 0
-47 16 31 0
41 -23 44 0
-10 -39 40 0
1 -15 17 0
-22 9 3 0
40 1 2 0
-33 48 -39 0
29 38 27 0
-50 -39 11 0
-41 -17 1 0
-48 -31 1 0
17 23 50 0
28 -5 -31 0
36 -45 -2 0
28 14 -48 0
21 -47 12 0
-47 24 22 0
29 -13 23 0
43 -45 29 0
28 25 15 0
24 48 35 0
-43 -49 -18 0
11 -41 -39 0
-16 -22 29 0
-34 -45 27 0
-4 -46 -6 0
22 34 -32 0
44 49 7 0
46 50 -9 0
-44 14 -6 0
11 10 -49 0
-9 -49 -25 0
-46 -45 31 0
-32 -16 -31 0
-7 -18 43 0
-26 34 17 0
14 15 20 0
33 39 -22 0
15 38 28 0
19 -26 21 0
9 -45 50 0
17 -16 -35 0
26 -50 11 0
-15 44 -4 0
-26 -44 -4 0
-39 30 1 0
-50 -12 -33 0
-47 -41 -20 0
34 18 33 0
-38 -7 -13 0
-22 30 -18 0
29 -27 -8 0
-40 2 19 0
11 -1 -26 0
-31 11 -35 0
-31 -16 5 0
-13 -38 16 0
34 15 4 0
-16 39 -45 0
-50 48 2 0
-18 28 -2 0
-15 -42 -1 0
-42 10 -24 0
27 -9 26 0
-22 9 -40 0
12 17 15 0
-38 -15 27 0
38 -49 -17 0
-1 31 2 0
35 11 -12 0
-14 -33 -39 0
41 -20 6 0
31 -45 7 0
5 -47 43 0
43 -16 10 0
28 1 13 0
14 -50 -26 0
44 12 -14 0
9 -19 42 0
-10 41 -8 0
39 36 18 0
11 37 2 0
38 -31 4 0
-18 -45 -20 0
-2 -46 38 0
-47 -24 9 0
-36 29 23 0
17 -18 46 0
-30 -47 40 0
-32 8 -7 0
20 -34 25 0
-21 -16 43 0
-43 42 -19 0
1 -16 22 0
