c Coffinhead hard-core n=50 seed=49 ratio=4.0
p cnf 50 200
46 -28 13 0
23 -13 10 0
-40 -30 41 0
48 -8 -45 0
-29 3 -19 0
-46 34 -33 0
13 43 -25 0
-13 3 45 0
-13 -3 -39 0
2 -36 -44 0
-25 -46 -28 0
5 -19 -44 0
-11 48 18 0
11 39 -3 0
30 19 -35 0
-38 -1 -21 0
34 -10 9 0
-21 42 12 0
47 -28 -26 0
-33 -15 -35 0
45 32 -15 0
-25 27 -3 0
-24 22 -12 0
17 35 -1 0
23 -45 4 0
-23 -46 -18 0
-49 -29 30 0
-10 18 -44 0
-7 -39 19 0
43 9 -11 0
-49 45 -30 0
-9 25 31 0
-37 -46 48 0
50 22 -33 0
18 -40 30 0
-21 -29 12 0
-11 33 29 0
9 -49 -29 0
14 50 -19 0
-26 2 32 0
-14 -50 44 0
-27 20 -13 0
13 -29 39 0
-27 -33 36 0
50 21 -35 0
-36 15 42 0
17 -10 -15 0
-2 38 8 0
41 8 -27 0
-2 -14 18 0
-13 35 -4 0
-12 1 -19 0
-45 -16 25 0
-13 -45 -48 0
34 -14 10 0
17 46 -5 0
25 42 -50 0
-50 -6 20 0
26 35 1 0
8 -34 48 0
33 -50 -9 0
4 -42 -7 0
-23 -8 22 0
-37 -17 -15 0
37 47 -50 0
-49 -24 -47 0
-33 -19 25 0
-43 50 -32 0
-15 -6 12 0
-3 45 40 0
14 33 34 0
-45 -19 41 0
-26 39 -12 0
-15 -23 27 0
31 38 -45 0
28 -44 30 0
-34 27 -20 0
-4 -16 -36 0
3 -29 -27 0
-21 2 -39 0
-15 24 2 0
-44 31 -39 0
44 -38 19 0
43 2 34 0
-13 24 39 0
-26 3 41 0
-43 47 6 0
21 50 24 0
-23 -29 28 0
-23 15 -20 0
43 -10 -16 0
46 -9 28 0
-5 25 -50 0
-32 11 -24 0
-12 -22 13 0
44 -42 -29 0
33 31 -25 0
49 -48 21 0
-49 -34 19 0
31 -2 4 0
23 -33 17 0
-40 29 31 0
-18 -48 24 0
39 -32 -33 0
-2 -16 14 0
7 21 -25 0
30 29 20 0
-42 -22 23 0
39 -11 -35 0
35 -17 -23 0
-1 -12 49 0
4 -11 36 0
-15 -33 28 0
29 39 -20 0
-3 13 -2 0
-33 6 -44 0
-19 -16 -20 0
-41 50 11 0
-33 -30 8 0
24 42 33 0
12 -36 23 0
-32 35 21 0
-2 30 -3 0
-47 3 -48 0
10 -26 -38 0
-35 -36 -8 0
-26 38 11 0
43 -20 38 0
-20 19 50 0
17 13 29 0
34 -25 -13 0
20 -8 48 0
-16 42 35 0
41 49 -43 0
31 28 -4 0
49 11 -10 0
-19 6 24 0
24 2 13 0
23 -16 4 0
-49 41 5 0
21 -18 8 0
-4 33 1 0
14 -10 13 0
11 39 16 0
43 32 -18 0
-28 33 -43 0
-17 -11 44 0
37 -21 6 0
26 -18 35 0
4 -40 8 0
44 -30 46 0
-30 -22 -44 0
-21 39 37 0
-26 -31 2 0
-13 -18 19 0
36 28 18 0
25 -18 -6 0
25 14 16 0
3 15 43 0
31 5 -7 0
-38 -43 25 0
-45 -33 -47 0
40 -39 -15 0
-8 -47 28 0
7 -24 -48 0
46 -5 -33 0
-21 7 -23 0
-16 19 37 0
-27 -37 14 0
-39 13 18 0
-44 36 -15 0
1 -46 26 0
33 28 -37 0
35 19 49 0
-42 47 -2 0
-31 50 -15 0
-7 -6 28 0
19 -44 42 0
-35 -9 16 0
-44 -1 43 0
-43 -8 40 0
-48 -21 50 0
-27 19 -37 0
-5 -48 -4 0
-25 2 -6 0
3 -5 -46 0
-26 -42 -35 0
13 -1 24 0
-38 16 -12 0
21 44 -33 0
-11 28 48 0
10 -30 -5 0
2 14 -13 0
-1 13 48 0
10 -7 -26 0
7 -17 -46 0
-34 -29 -36 0
7 20 -19 0
12 -15 -43 0
-4 -3 2 0
