c Coffinhead hard-core n=30 seed=52 ratio=4.0
p cnf 30 120
-13 11 17 0
21 -6 14 0
-24 18 -25 0
-29 3 -9 0
-30 -25 -26 0
5 -20 -29 0
-19 7 24 0
30 -24 29 0
23 7 -24 0
-12 -20 -18 0
-22 3 -18 0
5 -8 17 0
24 -2 16 0
21 23 6 0
-14 -24 10 0
-1 -8 3 0
4 -17 8 0
-26 23 -15 0
-1 -17 -14 0
9 11 -10 0
-4 17 19 0
29 -7 1 0
-2 -6 -23 0
-24 -1 26 0
10 -11 -30 0
6 -24 25 0
-4 7 -21 0
28 13 8 0
-25 8 22 0
-23 17 -12 0
28 -3 -20 0
23 -7 13 0
5 10 -13 0
14 -27 21 0
24 6 23 0
-22 -28 -3 0
18 28 25 0
4 -24 9 0
17 -2 -21 0
-11 -24 -17 0
14 -23 -25 0
16 -5 -14 0
4 30 16 0
-7 3 -1 0
-23 -25 -8 0
17 2 16 0
11 -24 -20 0
20 11 29 0
13 15 -7 0
-23 29 -20 0
6 -11 18 0
-21 -25 20 0
16 -12 -1 0
-13 29 22 0
-30 2 -21 0
6 19 18 0
8 -1 16 0
-2 21 13 0
-24 -19 -18 0
-24 10 -1 0
26 23 -25 0
11 19 -9 0
-3 30 4 0
8 9 -11 0
10 -14 24 0
-8 12 -16 0
18 4 5 0
-28 -19 -22 0
9 24 21 0
-15 25 -18 0
-25 2 15 0
-1 -16 28 0
14 -5 10 0
-15 -23 -25 0
29 26 8 0
-25 -30 -5 0
27 -30 8 0
24 -17 23 0
5 22 -8 0
6 18 -2 0
2 6 -25 0
-23 20 21 0
-9 3 -15 0
-25 16 -15 0
20 9 16 0
-22 -24 3 0
-3 -24 22 0
28 -29 6 0
-2 15 -11 0
20 30 -4 0
-7 1 15 0
7 27 -8 0
-20 -25 21 0
-20 -21 17 0
3 10 26 0
10 -22 -19 0
11 15 16 0
-18 14 -17 0
-1 -4 25 0
-28 27 -4 0
6 7 2 0
-30 16 -12 0
-12 -6 -23 0
-8 16 15 0
3 -10 4 0
-12 -1 27 0
10 -20 9 0
27 -29 17 0
8 -26 2 0
-13 16 14 0
-27 -16 -4 0
25 23 16 0
-23 17 24 0
2 3 -12 0
-27 -18 14 0
20 -15 -23 0
-13 -10 30 0
20 30 -15 0
22 14 25 0
8 14 -23 0
