c Coffinhead hard-core n=30 seed=101 ratio=4.0
p cnf 30 120
12 2 19 0
-15 -22 10 0
11 -30 -8 0
-13 2 -12 0
-11 -14 30 0
2 -6 -30 0
3 -21 27 0
2 3 16 0
-29 11 23 0
14 7 13 0
27 -1 -22 0
-9 12 21 0
19 27 28 0
6 17 -30 0
-8 27 25 0
-11 -25 3 0
11 -14 -6 0
-27 22 13 0
-1 -16 26 0
6 -20 -15 0
9 16 -4 0
22 19 12 0
16 2 27 0
19 -14 24 0
12 -4 1 0
-12 10 17 0
-5 21 17 0
17 7 -20 0
9 -5 12 0
1 30 24 0
-16 13 23 0
-27 -21 -26 0
25 30 2 0
6 -23 -20 0
16 20 -12 0
3 -14 27 0
11 17 -7 0
-5 28 24 0
-30 23 17 0
14 25 -1 0
24 30 -29 0
-23 -21 30 0
17 -8 -9 0
-6 25 16 0
17 -3 -22 0
1 -16 27 0
5 18 -16 0
-22 25 -9 0
-4 28 2 0
24 13 11 0
9 -26 -4 0
-15 7 -21 0
23 27 20 0
-25 -12 -27 0
-10 7 -18 0
17 -9 18 0
23 29 20 0
-1 21 -22 0
22 6 -13 0
30 -21 6 0
2 -11 7 0
-17 -22 -16 0
14 -15 -27 0
-25 13 26 0
-12 9 -19 0
-24 4 6 0
4 -16 11 0
24 13 -29 0
-13 -23 -6 0
25 2 11 0
23 5 -7 0
-27 29 3 0
18 30 -8 0
26 -29 15 0
6 27 -11 0
-26 12 8 0
-23 11 -3 0
-20 -25 -16 0
-7 25 20 0
-21 10 -27 0
15 -12 25 0
-22 -26 24 0
-25 -20 18 0
9 25 12 0
15 -12 3 0
-30 -24 -25 0
5 -27 2 0
-7 4 -3 0
-18 -20 -4 0
21 10 29 0
27 -20 21 0
25 6 23 0
25 -8 -30 0
8 -1 18 0
-8 9 17 0
22 -18 -25 0
-7 28 -5 0
28 19 16 0
-13 8 -5 0
-25 23 9 0
-24 12 10 0
-13 -6 22 0
-4 13 7 0
4 -26 13 0
-23 -16 -22 0
16 -8 -26 0
-3 -2 -13 0
2 -23 -9 0
9 19 20 0
4 -20 26 0
-2 25 -17 0
-13 -16 -20 0
-7 -2 3 0
-13 -21 24 0
4 -8 -2 0
-7 17 3 0
8 -14 -10 0
22 27 -20 0
-14 10 30 0
-1 26 -11 0
