c Coffinhead hard-core n=30 seed=19 ratio=4.0
p cnf 30 120
-6 -12 5 0
28 6 18 0
-10 -28 18 0
-4 -17 -20 0
-9 2 -28 0
-2 10 -3 0
19 -16 3 0
19 12 -11 0
29 -22 3 0
23 -3 -17 0
-16 23 -9 0
-1 -18 -6 0
6 22 -7 0
-18 27 -15 0
-11 19 10 0
-4 13 -10 0
-3 16 17 0
7 -15 -22 0
5 26 -2 0
11 -20 30 0
-11 -8 5 0
27 -3 -28 0
15 3 -26 0
-1 -20 16 0
29 13 -7 0
-1 -25 -27 0
-14 -16 -28 0
-10 -4 14 0
22 -18 5 0
-18 23 -1 0
4 14 -16 0
-21 -19 -30 0
17 1 4 0
26 5 3 0
-3 -2 -8 0
5 -12 -21 0
4 15 -13 0
-9 10 -26 0
27 -25 12 0
-28 -12 14 0
-6 -12 5 0
23 -10 -8 0
-22 19 -27 0
15 -25 27 0
10 4 28 0
20 -14 10 0
-16 -9 -2 0
13 1 24 0
-24 -12 4 0
6 -24 8 0
-12 -22 -24 0
15 -2 28 0
-10 14 29 0
-12 17 -16 0
1 -8 5 0
2 3 9 0
17 -1 24 0
9 -5 -15 0
-8 16 28 0
-25 -21 7 0
2 21 8 0
7 -23 -24 0
10 -20 21 0
2 24 4 0
15 14 23 0
14 -7 16 0
-6 -10 -12 0
-16 4 -8 0
-12 2 21 0
2 9 -3 0
30 -2 6 0
11 28 -20 0
-3 5 14 0
26 3 -24 0
-27 -28 -26 0
3 5 -6 0
8 -11 -22 0
-9 -20 -7 0
13 21 -20 0
-16 29 -12 0
-9 30 -4 0
14 3 26 0
-10 13 -5 0
-29 -9 3 0
25 12 -6 0
1 -24 -26 0
-27 12 20 0
-19 10 -24 0
27 -28 2 0
-3 -15 1 0
6 30 -28 0
-16 -9 4 0
21 -1 -14 0
12 13 -28 0
-18 14 -26 0
-5 -19 26 0
-7 -19 2 0
-3 -26 -30 0
8 26 22 0
-17 10 -1 0
-13 -2 -20 0
4 29 23 0
-19 30 8 0
4 1 -11 0
8 -7 -20 0
-15 -7 -2 0
26 -12 19 0
-18 -27 -20 0
5 -12 -16 0
-10 6 -26 0
-4 -7 17 0
-8 19 1 0
6 -14 4 0
-15 6 -10 0
-14 -28 -20 0
1 9 -20 0
27 4 -24 0
21 13 -12 0
-30 -15 13 0
-23 -2 24 0
