c Coffinhead hard-core n=30 seed=5 ratio=4.0
p cnf 30 120
16 2 -29 0
-23 -30 -29 0
-23 17 29 0
2 30 -19 0
-10 13 -14 0
10 23 -11 0
29 -11 8 0
12 24 -21 0
29 25 -16 0
15 -7 -1 0
-30 14 -1 0
-29 -18 26 0
12 27 -25 0
-13 -25 16 0
1 10 24 0
-28 -20 29 0
-29 -14 -2 0
-4 -30 12 0
5 -8 -25 0
19 15 -10 0
8 -16 5 0
25 7 29 0
-23 3 -8 0
12 21 18 0
-20 -13 15 0
14 -27 16 0
-12 1 8 0
13 -4 23 0
-13 4 -30 0
15 -9 13 0
29 16 -4 0
-10 -5 19 0
5 30 -1 0
8 -29 -27 0
-28 11 -27 0
11 -16 5 0
-15 -26 -18 0
-3 10 -6 0
-4 -20 -18 0
-6 14 27 0
-6 18 27 0
-27 -8 -30 0
25 -16 -2 0
8 22 24 0
-22 11 -9 0
-26 30 7 0
-11 -4 -28 0
-5 7 -25 0
-11 -28 23 0
20 -30 8 0
9 6 5 0
-6 -10 -15 0
-25 21 -28 0
-22 -17 -14 0
-22 5 15 0
-28 20 18 0
-11 -5 9 0
-2 17 1 0
-8 -5 14 0
18 -15 29 0
-10 -6 18 0
-30 -18 21 0
9 -30 2 0
26 24 -18 0
-19 24 14 0
18 20 -4 0
16 -11 6 0
3 21 -13 0
8 24 20 0
28 17 18 0
-6 20 23 0
-22 6 8 0
-1 19 -14 0
25 16 23 0
24 -23 -1 0
9 23 24 0
25 -8 13 0
18 17 8 0
-1 -2 10 0
-27 -2 26 0
-15 23 11 0
-26 -23 5 0
-27 11 -28 0
-12 22 -16 0
-18 -30 -27 0
29 23 9 0
3 7 -17 0
-18 -29 -12 0
7 -23 -16 0
-3 -14 -28 0
13 -5 16 0
25 -6 21 0
21 1 22 0
-27 -12 10 0
23 5 -12 0
-29 4 24 0
-29 -4 27 0
-2 12 -27 0
-8 -9 -28 0
1 27 22 0
30 -7 16 0
-24 16 -19 0
-15 14 16 0
-21 -14 -17 0
6 -3 -11 0
-7 -1 -12 0
-3 14 -2 0
-3 -10 -15 0
6 3 26 0
24 -11 -26 0
25 24 -5 0
-19 14 -16 0
-24 1 10 0
18 -29 -10 0
27 15 6 0
11 -8 -22 0
-3 -27 9 0
1 -4 -30 0
27 21 17 0
-20 -23 -18 0
