c Coffinhead hard-core n=30 seed=28 ratio=4.0
p cnf 30 120
-19 5 25 0
3 -8 -2 0
-27 16 13 0
11 -19 -17 0
-16 27 19 0
7 12 13 0
-4 3 -29 0
-6 18 -9 0
22 21 -7 0
-6 -29 18 0
-7 12 -3 0
24 -13 -16 0
5 -18 7 0
-10 -7 -24 0
14 -11 20 0
-30 19 -20 0
-22 -26 29 0
7 -3 9 0
8 18 -4 0
29 19 -15 0
-19 12 24 0
27 19 2 0
27 1 16 0
14 24 2 0
-8 -20 -28 0
-27 -16 9 0
18 10 19 0
-22 12 14 0
-6 -19 -5 0
-18 15 28 0
-26 -22 -2 0
21 16 13 0
-22 3 8 0
29 -24 -5 0
19 -28 -18 0
-16 -26 -18 0
6 -24 1 0
-27 19 -25 0
24 -1 16 0
20 26 -9 0
15 11 16 0
6 28 22 0
-2 19 7 0
-20 9 -13 0
-6 -27 -11 0
-7 -8 -15 0
23 30 3 0
21 4 -18 0
-28 14 -3 0
-1 15 -2 0
-20 28 1 0
11 8 -9 0
-4 11 6 0
25 18 20 0
-5 28 6 0
4 -8 27 0
-10 -12 1 0
16 -30 -27 0
16 9 -12 0
21 17 2 0
24 28 18 0
-23 -30 3 0
26 -15 19 0
3 -4 -1 0
2 -9 -11 0
-24 6 -10 0
23 29 8 0
17 -6 11 0
-22 4 15 0
-29 -19 -1 0
5 -10 -22 0
-30 11 -24 0
7 5 -17 0
9 -4 17 0
-3 -26 -29 0
25 -8 -20 0
-19 -23 3 0
2 -28 27 0
-7 -5 13 0
27 26 20 0
15 1 21 0
-18 24 -10 0
19 -17 -7 0
13 -29 1 0
-11 28 8 0
12 -17 28 0
-23 27 -14 0
13 2 -19 0
7 20 -16 0
18 -3 -27 0
21 -30 15 0
18 -19 14 0
20 -19 5 0
-7 -18 1 0
-21 22 4 0
24 19 -9 0
-12 27 14 0
-1 4 -2 0
17 26 12 0
-22 -19 23 0
-19 20 -8 0
17 28 -23 0
4 -1 -7 0
19 -9 6 0
14 19 9 0
-24 -14 -16 0
2 -9 27 0
12 8 -27 0
-19 -28 -17 0
7 -14 -21 0
-20 9 -1 0
11 -25 -14 0
8 -7 -17 0
-9 -13 27 0
-20 -11 1 0
13 -7 -2 0
6 21 2 0
17 26 19 0
-18 -12 -14 0
13 -15 -7 0
