c Coffinhead hard-core n=30 seed=8 ratio=4.0
p cnf 30 120
-19 -5 25 0
-23 -4 -10 0
4 18 28 0
-28 17 9 0
-10 17 11 0
-10 -3 25 0
-15 23 9 0
-5 26 -28 0
-8 19 6 0
14 -11 -3 0
-2 -27 7 0
-29 -7 -26 0
12 10 -11 0
4 27 -3 0
26 -8 5 0
2 -18 -6 0
-9 7 -22 0
-1 19 -25 0
-12 -18 24 0
6 -4 1 0
-10 -7 -15 0
-28 -21 4 0
-12 -17 -11 0
-21 24 18 0
-1 22 -30 0
9 20 2 0
-25 -23 29 0
-4 -24 -23 0
27 -4 3 0
-19 24 27 0
-18 12 25 0
-14 -26 8 0
1 -15 -21 0
-25 -14 29 0
-9 25 -4 0
-25 -21 -26 0
-27 -21 -28 0
-9 -8 -5 0
-19 -15 6 0
17 12 1 0
16 -8 -27 0
-24 -6 14 0
25 -10 1 0
-25 27 -19 0
-2 21 10 0
1 18 -24 0
8 23 19 0
16 5 1 0
-20 15 -13 0
-2 8 -18 0
-6 26 -25 0
-8 -23 26 0
-30 -2 -4 0
10 19 17 0
-13 24 5 0
-29 27 -20 0
2 -5 28 0
23 22 -13 0
-6 22 -8 0
21 15 23 0
-24 27 -28 0
-27 -26 3 0
15 -14 -23 0
-27 7 -22 0
-6 22 -24 0
17 20 28 0
8 -28 -17 0
-25 21 -28 0
-20 -22 -4 0
24 -2 11 0
8 -21 -4 0
26 11 6 0
-30 19 22 0
-10 -26 -20 0
-10 -4 -24 0
21 22 -24 0
26 17 1 0
4 -1 -30 0
24 25 -17 0
-30 -23 15 0
-24 12 -3 0
26 3 -30 0
-6 12 -29 0
27 4 -23 0
-24 10 -13 0
4 -24 -5 0
-17 21 12 0
-11 13 30 0
20 15 -14 0
17 13 6 0
-24 -13 20 0
-10 4 27 0
-28 23 9 0
6 18 -15 0
5 -15 12 0
-24 -1 19 0
24 -6 28 0
-17 6 -25 0
10 17 13 0
12 20 27 0
10 24 -18 0
2 3 29 0
25 22 12 0
4 -24 -19 0
17 -18 -4 0
-29 4 -23 0
19 -20 28 0
-30 -18 19 0
-11 5 -7 0
13 19 -14 0
10 26 -24 0
13 -26 -16 0
29 -10 -22 0
-21 -18 -11 0
23 -2 16 0
24 21 -1 0
-5 -2 -25 0
1 13 -15 0
-24 8 -11 0
29 -13 23 0
