c Coffinhead hard-core n=30 seed=79 ratio=4.0
p cnf 30 120
-30 22 -29 0
-24 16 15 0
-24 19 12 0
-12 19 -16 0
12 -5 4 0
-19 -6 -24 0
2 10 -22 0
-25 -16 11 0
-11 24 18 0
-18 -23 28 0
10 25 -17 0
-21 13 7 0
-3 -2 8 0
-7 -16 24 0
5 -12 -11 0
3 -6 23 0
-1 16 28 0
24 -23 5 0
-7 15 -9 0
28 6 -1 0
-11 23 6 0
-4 13 -22 0
4 -3 -30 0
-17 16 8 0
8 -25 -22 0
-14 -28 7 0
15 11 28 0
-19 -23 -14 0
30 29 4 0
-13 -21 17 0
-7 11 -4 0
-16 10 -5 0
19 17 22 0
30 -2 -29 0
-24 15 14 0
-5 24 -16 0
11 13 -23 0
-25 29 -19 0
7 -6 5 0
16 28 21 0
9 12 -5 0
27 -25 -7 0
-11 16 -25 0
17 30 15 0
1 12 6 0
4 -24 30 0
18 26 12 0
25 -3 14 0
11 -25 14 0
-20 15 -30 0
-27 -18 -25 0
-28 18 19 0
-1 8 -6 0
5 21 -27 0
14 1 23 0
-24 3 2 0
9 20 5 0
-23 -22 -11 0
12 30 -21 0
-25 16 -22 0
6 -18 27 0
5 -13 25 0
12 -6 30 0
-19 28 4 0
30 21 -19 0
-17 2 -13 0
25 -22 -1 0
-6 -19 -14 0
3 -15 14 0
-5 20 -1 0
-25 2 19 0
19 -1 -3 0
14 5 -10 0
6 -16 -20 0
-14 30 -4 0
2 -7 -24 0
5 -25 -1 0
-26 10 12 0
-27 5 -1 0
28 6 -24 0
-19 22 -3 0
-25 27 -21 0
-19 11 -3 0
24 -6 -25 0
-28 -21 -26 0
3 9 16 0
30 -14 19 0
5 10 30 0
27 26 12 0
-6 -9 -10 0
-5 -15 10 0
-15 -6 -8 0
-14 27 22 0
27 -24 -11 0
20 11 16 0
12 6 -24 0
-17 14 -16 0
-27 22 -25 0
13 -14 -7 0
-3 -12 1 0
8 -22 -14 0
30 11 -20 0
30 27 -3 0
27 -10 18 0
-25 -16 21 0
14 -17 -25 0
-19 -15 -2 0
22 24 -19 0
-3 -22 -14 0
11 -15 -14 0
19 -9 -5 0
-3 9 7 0
-27 28 12 0
-20 5 19 0
-4 -24 -10 0
12 -24 -27 0
-12 -2 -4 0
9 28 20 0
2 -21 4 0
10 14 -1 0
