c Coffinhead hard-core n=30 seed=71 ratio=4.0
p cnf 30 120
-12 6 11 0
-20 9 18 0
27 -10 -1 0
3 21 -7 0
-1 -23 9 0
4 -16 -2 0
23 22 -17 0
-18 28 -14 0
21 20 -27 0
21 30 6 0
12 -14 -21 0
-26 -18 8 0
-21 -8 -27 0
-7 8 -23 0
-12 14 -23 0
-27 4 16 0
25 2 -29 0
-28 -25 -9 0
21 24 12 0
-29 17 -26 0
9 26 -12 0
-29 15 -7 0
5 1 -29 0
9 -10 -21 0
-3 -29 -14 0
7 14 -10 0
3 14 19 0
-14 16 25 0
12 17 18 0
-25 4 16 0
-26 -17 -7 0
24 -27 12 0
14 2 28 0
18 -19 -21 0
5 -1 -21 0
4 10 1 0
5 11 -19 0
-7 -15 25 0
-4 -25 9 0
-27 20 -28 0
-7 -27 -5 0
23 15 -22 0
-11 -17 22 0
6 30 -21 0
9 -25 -10 0
9 -18 -25 0
-28 21 -15 0
7 30 -29 0
13 21 -14 0
22 21 -8 0
-5 30 -24 0
1 3 30 0
15 -11 2 0
-6 1 -7 0
2 15 -30 0
4 3 -18 0
-29 16 12 0
18 22 -10 0
2 20 5 0
15 12 -13 0
-5 4 -19 0
28 -20 22 0
29 23 14 0
-17 28 24 0
4 13 6 0
-4 3 -30 0
-10 -27 28 0
2 -23 26 0
-23 19 -27 0
-28 -19 20 0
28 -10 -24 0
21 6 -22 0
-25 -23 -7 0
-5 -12 -9 0
-28 1 6 0
-6 8 -20 0
27 24 25 0
-23 26 -24 0
2 -17 -14 0
20 -4 13 0
19 21 -18 0
-29 -6 4 0
25 -16 -11 0
18 12 -8 0
23 13 18 0
-18 -25 -2 0
18 -20 -14 0
-17 -14 -27 0
7 4 1 0
22 10 9 0
7 8 15 0
-21 27 -1 0
28 10 -3 0
29 -16 4 0
-9 -25 -21 0
-26 5 -10 0
-3 -1 -22 0
-2 8 19 0
4 -29 15 0
-4 -30 9 0
20 -5 13 0
20 26 -12 0
3 -5 -25 0
-2 24 21 0
-12 -9 14 0
-19 -16 -29 0
-12 28 21 0
-24 -3 25 0
-8 -22 2 0
30 11 16 0
-14 23 26 0
-10 24 3 0
-19 5 14 0
26 -8 -10 0
-21 5 3 0
-11 -21 27 0
-12 18 4 0
-24 -6 22 0
27 10 -24 0
15 14 -16 0
