c Coffinhead hard-core n=30 seed=25 ratio=4.0
p cnf 30 120
12 -20 25 0
27 -15 20 0
-3 29 -24 0
-14 -7 20 0
23 -9 30 0
1 13 -9 0
-13 6 29 0
29 -8 24 0
5 -14 22 0
-17 -9 4 0
4 -28 -19 0
8 -14 -20 0
25 -29 16 0
5 12 -14 0
3 -18 -30 0
-29 9 -11 0
-1 21 24 0
18 -14 -9 0
22 8 -14 0
25 12 -30 0
-26 -8 -11 0
-3 2 -15 0
4 -13 -26 0
-7 29 -2 0
30 23 -5 0
7 28 -27 0
-9 -3 19 0
19 -30 18 0
-17 30 -5 0
-24 11 -5 0
-11 13 -6 0
-25 17 13 0
-21 29 -14 0
-12 -27 -22 0
30 -17 24 0
-16 21 -7 0
-30 3 -16 0
-25 10 -29 0
20 -23 -26 0
-17 14 26 0
16 15 19 0
-24 9 -1 0
-14 -22 7 0
10 11 -24 0
-12 26 -16 0
-15 1 -13 0
22 15 4 0
22 12 -28 0
-29 14 5 0
8 19 -11 0
-9 -15 27 0
8 -29 11 0
-3 20 -7 0
-10 2 -8 0
-29 -14 -15 0
-1 11 -28 0
25 9 17 0
17 -27 -30 0
-20 -1 17 0
-4 25 -27 0
21 23 27 0
-23 -30 -11 0
11 26 9 0
30 9 -12 0
23 20 -12 0
-23 -1 -15 0
11 -4 26 0
6 14 -9 0
-8 5 20 0
26 -4 30 0
-29 -13 9 0
1 11 24 0
10 -23 18 0
-11 29 -24 0
-6 -11 23 0
26 -28 18 0
5 10 1 0
-13 4 -30 0
23 -1 -24 0
29 16 -18 0
12 -5 -6 0
-10 7 -4 0
-22 -21 8 0
-12 28 -14 0
-19 30 -25 0
24 27 -3 0
4 20 -17 0
-6 -23 5 0
2 -11 -4 0
-14 17 -25 0
5 -22 -1 0
-25 12 9 0
2 20 -12 0
22 -20 -29 0
-8 -25 26 0
-26 19 -24 0
-2 3 25 0
19 -28 -23 0
30 -16 -19 0
-3 19 1 0
24 18 10 0
18 9 -1 0
-15 -13 -18 0
29 -30 -5 0
14 8 18 0
29 27 -19 0
-12 29 -13 0
-6 -2 -11 0
14 -27 -9 0
3 -8 27 0
-7 -20 -28 0
-21 27 19 0
-18 9 -1 0
5 3 16 0
29 13 -4 0
-7 -4 26 0
-15 22 -1 0
-12 28 -8 0
-5 8 28 0
-21 -15 9 0
