c Coffinhead hard-core n=30 seed=66 ratio=4.0
p cnf 30 120
7 -5 8 0
3 22 -14 0
2 -4 10 0
11 -19 9 0
-11 6 -3 0
28 -26 -1 0
20 26 5 0
-27 -20 -23 0
-10 -11 23 0
2 -16 -30 0
-11 -7 20 0
8 -7 -26 0
-27 -21 -15 0
-20 -12 19 0
-27 2 23 0
22 11 -9 0
-30 9 12 0
9 -26 -6 0
14 20 -12 0
-24 30 -21 0
-26 10 29 0
-19 -25 -23 0
6 -27 30 0
-23 -17 -24 0
-26 -8 9 0
-30 -18 7 0
-14 -18 21 0
-27 -11 -28 0
-10 -3 -30 0
-7 -12 -4 0
19 6 -23 0
-7 16 -27 0
4 6 -17 0
-16 -14 -30 0
-24 26 22 0
10 25 2 0
-12 -4 2 0
-21 -2 -20 0
19 11 7 0
1 -11 -20 0
4 -25 -21 0
-26 -4 -9 0
-11 -6 -26 0
26 -3 20 0
-19 9 18 0
27 -11 18 0
4 1 29 0
-16 -26 -9 0
-27 -13 -30 0
-18 -6 -29 0
-2 10 7 0
2 21 -30 0
27 8 -15 0
-23 -19 -22 0
-24 4 25 0
24 19 -15 0
6 2 -15 0
11 5 -4 0
-6 15 18 0
-15 -26 4 0
-1 -15 19 0
5 -8 3 0
-9 -19 -13 0
-9 -8 26 0
-17 -20 -30 0
16 3 26 0
-1 27 -30 0
27 7 15 0
12 4 -1 0
15 -29 -6 0
-15 -8 25 0
15 28 1 0
10 15 -1 0
-25 -27 -18 0
-24 1 -7 0
-27 29 -15 0
-24 -15 -12 0
2 16 25 0
9 -3 -8 0
-20 -26 12 0
16 21 14 0
6 13 9 0
-28 26 18 0
-18 27 -28 0
1 13 -10 0
-9 13 -8 0
13 -12 -11 0
-1 11 -4 0
-2 17 -12 0
-5 21 28 0
-1 -27 20 0
-9 -21 -18 0
-25 -20 -15 0
5 18 2 0
-10 -1 -17 0
-21 29 -10 0
-29 1 -25 0
-2 17 -5 0
8 30 22 0
11 -13 9 0
-27 -19 -29 0
17 8 13 0
3 -24 -16 0
26 19 18 0
-19 -24 26 0
-12 17 23 0
11 -24 30 0
30 26 2 0
-19 -3 -2 0
12 -15 -10 0
5 -6 -8 0
21 -6 -22 0
-2 -6 -13 0
-5 -12 -22 0
-8 -10 19 0
23 9 2 0
-4 -26 -17 0
14 -3 -24 0
-15 -29 26 0
30 -5 -27 0
