c Coffinhead hard-core n=30 seed=4 ratio=4.0
p cnf 30 120
-25 -3 12 0
4 -11 13 0
1 -25 -8 0
19 -2 29 0
-4 -28 -16 0
18 5 7 0
5 6 -27 0
13 11 -23 0
18 28 25 0
-15 20 -26 0
-4 28 11 0
18 30 -16 0
6 12 5 0
-24 -4 -14 0
18 -11 5 0
-22 5 -27 0
-23 -25 -27 0
4 24 -18 0
6 -1 -2 0
-22 -30 26 0
-15 21 -19 0
-29 -5 21 0
13 27 -11 0
13 -22 -18 0
-6 -23 1 0
-17 2 14 0
-22 24 -19 0
-2 -28 12 0
22 -4 7 0
9 23 4 0
-21 -24 5 0
10 13 -24 0
-26 6 -24 0
20 18 10 0
-3 -18 -9 0
28 15 20 0
2 -12 3 0
12 27 5 0
-30 -12 10 0
28 -14 11 0
-29 -12 13 0
15 -5 1 0
17 2 13 0
-4 -28 -8 0
29 -20 -14 0
13 25 23 0
-17 -28 5 0
30 1 20 0
-3 6 -16 0
25 -13 -20 0
-23 25 -17 0
21 15 -29 0
-14 -30 15 0
23 10 5 0
21 -20 -4 0
18 -27 5 0
24 11 -21 0
22 16 -6 0
23 -17 -20 0
14 -2 -3 0
23 30 4 0
-22 -11 -10 0
-10 -3 6 0
14 6 -27 0
-16 26 -11 0
8 -21 1 0
-21 -14 29 0
4 -11 19 0
28 -2 30 0
12 22 -24 0
5 -11 -8 0
23 17 -12 0
-28 14 8 0
5 -8 13 0
8 13 -17 0
1 13 17 0
-2 -21 5 0
28 1 6 0
-22 23 19 0
-24 29 -12 0
2 -9 -26 0
-1 -19 23 0
-22 -27 1 0
14 -17 -18 0
27 -5 15 0
-14 -26 -9 0
-23 11 -21 0
-10 26 6 0
4 -23 29 0
29 5 -13 0
25 8 -30 0
-7 15 -4 0
12 8 18 0
-29 2 11 0
28 29 19 0
-17 15 -1 0
-3 17 2 0
1 -16 -19 0
5 18 -7 0
30 -19 -27 0
-7 17 11 0
2 -12 28 0
-14 26 -29 0
-19 -23 -15 0
-24 -13 26 0
10 -9 -3 0
30 -14 -1 0
-3 10 24 0
1 6 25 0
-28 -30 16 0
8 11 14 0
14 10 26 0
16 13 -2 0
9 30 1 0
-9 4 30 0
28 10 29 0
-26 22 -21 0
-24 -27 -28 0
13 7 -12 0
24 12 2 0
