c Coffinhead hard-core n=30 seed=63 ratio=4.0
p cnf 30 120
-22 -30 -8 0
-5 10 -4 0
15 -11 18 0
23 1 16 0
27 21 17 0
25 6 20 0
-28 -17 29 0
-15 12 25 0
26 8 18 0
26 -20 -7 0
6 -7 -24 0
-13 -5 19 0
10 29 -30 0
-9 14 21 0
-12 -19 1 0
10 -24 -6 0
-8 25 13 0
-30 4 5 0
8 -2 10 0
-24 2 -8 0
4 -16 -18 0
2 -3 -29 0
-1 28 -20 0
10 7 -14 0
18 -13 -12 0
27 -5 -16 0
23 -4 2 0
-24 -11 -8 0
-26 13 -4 0
-6 -29 -23 0
-16 -7 3 0
-18 1 -14 0
-29 17 -14 0
16 -28 -19 0
-18 26 12 0
19 -13 -6 0
5 14 30 0
-26 -6 -20 0
21 -4 8 0
-6 26 -3 0
-4 30 14 0
27 15 -18 0
-23 1 30 0
18 19 8 0
1 -5 14 0
-13 -7 -10 0
-23 12 -10 0
-5 -4 12 0
-25 26 24 0
2 -21 1 0
-24 3 -1 0
28 -6 -25 0
-24 5 13 0
-20 -18 -12 0
-25 15 28 0
-15 -11 27 0
-9 -20 23 0
25 -8 -3 0
7 29 14 0
7 29 -27 0
19 7 -6 0
2 -23 -28 0
-21 7 -22 0
8 -13 21 0
12 -30 -6 0
-7 -24 -2 0
9 26 -25 0
-14 9 -5 0
10 -25 7 0
-20 2 -16 0
21 -15 25 0
-28 6 7 0
-25 -16 19 0
-8 -30 29 0
3 -27 -25 0
-29 14 -20 0
-16 18 3 0
11 24 -6 0
-1 10 17 0
26 3 -6 0
-28 -2 -9 0
-17 16 -13 0
22 -11 -18 0
28 27 10 0
7 14 12 0
-4 7 -26 0
-13 -23 -24 0
28 -13 25 0
-3 -10 26 0
3 6 7 0
-10 20 13 0
-23 16 29 0
-16 14 -29 0
-5 -11 1 0
-13 10 -6 0
1 -30 23 0
6 -17 21 0
6 22 -4 0
-25 -27 -12 0
-18 -1 -6 0
-5 14 11 0
-27 2 7 0
-5 -12 16 0
-11 -15 22 0
19 13 16 0
-3 -17 29 0
-10 26 -29 0
-14 -9 -26 0
-14 19 13 0
-8 -2 -24 0
-17 -27 8 0
17 -5 18 0
-2 -9 6 0
26 -6 -9 0
30 25 -2 0
-30 22 -28 0
28 -23 -30 0
22 17 -25 0
30 -29 -19 0
26 -4 -6 0
