c Coffinhead hard-core n=30 seed=72 ratio=4.0
p cnf 30 120
-13 -3 29 0
-19 -17 12 0
22 15 3 0
9 18 -2 0
17 14 29 0
30 -8 -15 0
24 5 30 0
-26 11 19 0
-15 -12 -7 0
-9 19 6 0
-12 -2 29 0
-27 14 10 0
30 -10 18 0
-6 -8 10 0
24 7 29 0
-20 -3 -27 0
-2 19 11 0
1 -18 -15 0
22 -28 3 0
4 17 -9 0
-27 13 -29 0
5 -6 -16 0
9 -26 10 0
-21 -3 -10 0
-9 -17 -20 0
-22 20 -15 0
28 -13 25 0
30 21 19 0
-17 -21 5 0
-27 6 -1 0
4 -17 -29 0
-23 19 -4 0
24 -14 3 0
6 -5 3 0
13 7 19 0
-17 -9 24 0
24 26 10 0
9 -15 16 0
29 20 3 0
21 6 -25 0
-4 1 24 0
-30 -2 -29 0
-30 -25 -24 0
12 -8 29 0
-22 -30 13 0
-28 27 1 0
1 4 11 0
-10 -21 -26 0
26 19 -10 0
19 -12 -9 0
15 6 14 0
-21 26 2 0
-9 -13 -21 0
-7 25 -2 0
-25 18 24 0
2 17 7 0
-21 -10 -12 0
6 8 29 0
-14 -3 -23 0
-13 -27 -28 0
1 -10 -23 0
2 15 -17 0
-9 -28 -12 0
-12 -1 -30 0
-3 -19 -17 0
15 -7 -2 0
9 -14 -24 0
-29 -13 22 0
-11 -18 14 0
21 16 -15 0
12 -19 -6 0
17 -30 -20 0
14 2 1 0
12 -22 -6 0
20 -5 29 0
-29 -6 20 0
-10 -5 26 0
-4 -10 -30 0
6 -8 26 0
-7 19 25 0
12 -5 -23 0
-23 -10 24 0
-29 20 21 0
5 -22 -11 0
-10 24 15 0
4 26 28 0
-4 10 5 0
-5 15 1 0
11 14 17 0
27 2 13 0
-24 -11 -26 0
-17 -1 -9 0
26 15 -1 0
15 20 26 0
-30 -26 27 0
-22 -10 -26 0
13 -21 27 0
30 -12 26 0
-1 12 -13 0
-7 30 -3 0
10 20 -12 0
-5 -4 14 0
11 -30 12 0
18 -14 -27 0
2 -20 24 0
-17 29 -30 0
-23 26 30 0
11 21 10 0
27 -25 28 0
-2 -25 -17 0
-18 -13 -11 0
-9 2 23 0
-20 -27 24 0
-11 14 -12 0
-28 19 24 0
-11 -29 10 0
-5 -14 4 0
26 22 1 0
-26 1 -13 0
-6 -12 -11 0
