c Coffinhead hard-core n=30 seed=89 ratio=4.0
p cnf 30 120
12 -8 17 0
3 -10 -6 0
-25 -10 15 0
14 -28 -27 0
11 -14 22 0
1 -29 -2 0
24 23 -29 0
-8 -2 19 0
-27 -29 -23 0
-24 -13 30 0
2 30 -23 0
-19 7 -25 0
-15 -13 16 0
-6 22 -15 0
-7 -15 -5 0
23 27 -16 0
-3 -12 -29 0
-1 -18 -21 0
-3 -15 -18 0
2 -21 27 0
8 19 20 0
-16 -27 -26 0
-3 -10 21 0
20 -16 7 0
8 -27 -12 0
-16 23 12 0
15 -30 29 0
-14 6 -5 0
23 10 20 0
5 -13 8 0
25 -19 -3 0
-7 -30 24 0
1 -27 -16 0
10 27 -1 0
-9 -8 -29 0
-8 25 -30 0
20 5 3 0
-27 -26 -25 0
-2 7 11 0
-9 1 10 0
-13 28 -4 0
-30 -19 -12 0
3 1 4 0
-10 -13 -21 0
21 14 3 0
3 -20 -1 0
19 3 30 0
-10 1 9 0
-17 -20 -25 0
18 2 28 0
-21 -6 -22 0
-18 26 -30 0
-28 -29 8 0
10 -13 -16 0
-27 22 -18 0
-4 23 20 0
-5 15 29 0
1 -2 26 0
23 -15 -14 0
25 19 -7 0
-23 13 19 0
29 3 2 0
-21 -11 17 0
2 10 -16 0
-25 -14 -27 0
-27 28 4 0
28 -22 10 0
23 -7 5 0
-6 18 -7 0
-8 -4 -6 0
-18 -7 20 0
8 -21 -16 0
-9 -11 -15 0
-17 24 -11 0
26 11 16 0
-17 29 -18 0
-19 -26 7 0
-27 -16 -5 0
-12 8 -14 0
-10 6 30 0
25 -1 11 0
11 -2 -17 0
-14 -20 -22 0
14 26 -5 0
27 19 -12 0
16 20 -12 0
7 -8 19 0
-12 -9 28 0
15 -21 9 0
25 22 20 0
27 -21 1 0
-4 12 19 0
21 -24 11 0
12 -20 -6 0
26 -10 -12 0
-14 29 -12 0
-3 21 -24 0
-19 -1 29 0
27 8 10 0
-1 -9 17 0
22 -14 -28 0
1 -18 10 0
10 -30 -7 0
15 19 -16 0
-6 -3 8 0
-16 22 15 0
1 18 14 0
28 -25 29 0
3 -12 17 0
8 19 4 0
6 8 -28 0
5 -25 9 0
-4 23 -27 0
8 30 4 0
-14 28 22 0
-1 20 -7 0
19 -2 6 0
6 -25 23 0
15 13 -1 0
1 -8 -3 0
