c Coffinhead hard-core n=30 seed=67 ratio=4.0
p cnf 30 120
-4 28 -24 0
9 3 -10 0
-23 -14 -20 0
-5 4 17 0
-22 -18 14 0
-7 14 28 0
-13 -15 -21 0
22 -20 -18 0
-10 -29 25 0
25 -1 5 0
7 -15 1 0
-10 -24 -5 0
1 23 -20 0
2 -4 13 0
14 25 -29 0
26 30 11 0
17 18 -21 0
26 2 -20 0
-27 20 25 0
9 -20 13 0
-23 6 -5 0
-9 11 -21 0
30 14 -4 0
19 13 3 0
17 -23 -6 0
22 -18 25 0
28 -23 11 0
-27 9 -22 0
-11 26 -2 0
3 -22 -19 0
-2 -5 -3 0
13 21 15 0
-15 1 -5 0
30 -12 -29 0
-13 15 7 0
-7 -28 -18 0
15 24 -28 0
-8 -4 28 0
7 -30 24 0
30 -23 3 0
-7 -12 10 0
25 -19 4 0
-24 -9 -20 0
-18 -29 -2 0
9 -20 16 0
-23 -6 18 0
21 18 28 0
-29 20 16 0
17 -26 21 0
-21 -18 -27 0
13 -2 4 0
30 -2 -1 0
-23 9 18 0
-12 9 27 0
6 27 28 0
25 3 -12 0
1 -24 -17 0
-23 -4 -18 0
-1 -22 16 0
-23 20 -22 0
25 17 -10 0
-9 -22 12 0
-26 -21 -2 0
-12 -16 27 0
-19 20 2 0
-28 -8 19 0
28 -8 26 0
-12 -26 24 0
6 13 -20 0
-16 -29 -8 0
-4 -5 -10 0
-30 20 4 0
-16 2 7 0
4 12 8 0
17 13 2 0
29 -22 -27 0
-27 24 -14 0
5 -25 26 0
22 -7 27 0
24 -30 -3 0
8 -21 -7 0
28 5 25 0
2 4 11 0
24 13 -3 0
25 -17 -1 0
-4 -26 -23 0
29 -2 4 0
-22 8 -19 0
23 19 -24 0
21 11 13 0
5 8 30 0
-3 -15 25 0
9 -24 -25 0
-8 -6 21 0
-6 22 -11 0
18 30 -1 0
14 -25 -21 0
-16 2 14 0
24 -13 6 0
-27 30 -3 0
-20 -1 13 0
-21 -1 9 0
25 20 24 0
3 -6 -1 0
7 19 -2 0
17 -16 -4 0
-10 4 -16 0
-12 -21 23 0
-17 -25 -7 0
25 -21 -1 0
-16 15 5 0
15 -2 8 0
-7 28 -2 0
29 25 19 0
10 -30 -23 0
-3 27 -24 0
1 -11 -12 0
7 -27 -24 0
-7 -26 20 0
-29 10 22 0
