c Coffinhead hard-core n=30 seed=26 ratio=4.0
p cnf 30 120
7 21 6 0
-25 18 -17 0
-29 -11 16 0
14 19 13 0
6 -23 -7 0
29 20 7 0
16 13 -11 0
23 -19 28 0
-10 -5 4 0
-2 7 19 0
25 -6 2 0
15 28 -21 0
11 -27 23 0
-8 -19 5 0
6 25 -29 0
23 -13 25 0
-9 20 -23 0
-20 14 10 0
-1 -3 26 0
-9 22 -10 0
1 -5 -16 0
-19 28 -21 0
15 -14 1 0
30 -23 -4 0
7 -26 -1 0
-24 13 6 0
17 20 -2 0
17 -21 -6 0
12 -22 -28 0
-21 -9 23 0
3 17 -5 0
-19 26 24 0
-4 -7 22 0
12 -27 -20 0
-19 11 -21 0
25 16 12 0
14 -6 11 0
-2 -7 12 0
-20 7 10 0
-17 20 2 0
26 -10 -24 0
-1 23 -16 0
-1 -2 25 0
3 13 -22 0
11 -10 14 0
-16 -23 -29 0
25 7 -2 0
26 21 -9 0
22 -12 27 0
-28 -13 -11 0
-18 28 15 0
25 19 -18 0
22 10 27 0
2 20 -11 0
3 -7 -21 0
27 -3 24 0
-29 -17 8 0
5 -24 22 0
18 11 -10 0
18 7 -10 0
28 -21 -4 0
-8 -27 18 0
-3 9 -2 0
-18 -23 -28 0
23 10 -11 0
-27 -11 -26 0
25 14 21 0
11 2 16 0
15 -3 7 0
25 30 -6 0
-30 -11 -23 0
-10 -24 8 0
-29 16 -24 0
18 -25 24 0
-27 29 -23 0
-20 13 -9 0
-25 22 -11 0
-13 20 30 0
-7 -22 -13 0
-27 -22 -9 0
-19 14 -28 0
8 -7 -6 0
9 -20 -4 0
26 -1 -18 0
-20 -27 -4 0
7 -27 -2 0
29 11 10 0
-11 -18 -20 0
9 19 -10 0
-2 -20 27 0
-11 3 30 0
-21 11 7 0
1 -6 -3 0
10 -11 5 0
-4 11 9 0
16 -3 28 0
5 28 -29 0
-27 -15 30 0
-13 29 17 0
1 5 30 0
-25 -26 -28 0
19 -21 -18 0
-12 10 -25 0
-21 -26 16 0
-21 16 -20 0
-10 -27 25 0
-29 -7 -13 0
-20 25 4 0
28 7 -12 0
29 -6 16 0
25 -24 18 0
25 -1 -12 0
4 -26 29 0
3 -7 -18 0
-5 -14 26 0
-12 -23 1 0
-14 -29 12 0
16 -27 -21 0
-26 -1 -20 0
-1 29 16 0
