c Coffinhead hard-core n=30 seed=76 ratio=4.0
p cnf 30 120
-21 -23 -12 0
30 -17 -6 0
-10 5 8 0
-21 23 8 0
2 13 28 0
-23 20 21 0
-22 -4 30 0
26 -27 3 0
8 21 25 0
-7 -22 11 0
-1 11 -2 0
-20 30 -11 0
1 -17 16 0
-19 -27 -9 0
-4 -29 -26 0
-25 -15 -28 0
13 -19 -26 0
10 -5 28 0
-3 21 1 0
13 -9 21 0
-2 23 -10 0
27 -16 -10 0
22 -1 27 0
-25 2 -23 0
3 -19 -17 0
4 -5 -12 0
13 -27 -1 0
17 -22 12 0
17 3 -7 0
-22 -21 -12 0
-29 -5 -24 0
22 -12 2 0
-16 -17 -29 0
3 -15 23 0
-14 18 -10 0
-17 6 2 0
30 -22 14 0
-29 -2 -21 0
-16 17 -8 0
-27 28 -7 0
24 -20 10 0
-9 30 8 0
2 16 10 0
-13 -3 16 0
18 -26 3 0
-10 23 -4 0
28 -6 -23 0
-25 -3 16 0
1 -12 -15 0
-4 -11 25 0
-1 5 10 0
-30 12 7 0
25 -1 -30 0
12 -10 22 0
19 3 -20 0
27 8 -25 0
-22 19 -28 0
1 -9 5 0
26 24 -10 0
6 -14 -23 0
19 15 -30 0
-15 -5 28 0
-4 23 -14 0
-22 28 15 0
-17 -6 15 0
-30 -13 16 0
13 -10 -22 0
13 -6 5 0
18 29 14 0
19 -6 1 0
14 -29 -9 0
-22 6 16 0
-16 -9 -22 0
-17 14 18 0
9 -5 29 0
-27 2 -8 0
23 30 -10 0
12 -9 16 0
23 -21 -24 0
14 15 1 0
24 -28 10 0
-19 -5 1 0
-18 -10 21 0
13 7 24 0
-20 -5 15 0
8 29 7 0
26 30 -21 0
-28 -25 10 0
21 3 2 0
10 22 -14 0
-10 -8 30 0
16 -11 30 0
25 -3 -28 0
-26 -19 7 0
-25 -15 -19 0
8 -26 -27 0
-6 7 28 0
26 -3 -30 0
18 30 25 0
21 -6 -2 0
-15 12 -16 0
10 16 -3 0
-29 6 23 0
2 4 -14 0
-27 13 -28 0
-29 10 17 0
-16 20 27 0
20 17 -26 0
-6 10 -20 0
-24 1 19 0
21 -4 22 0
12 -1 -14 0
23 -12 1 0
-6 -18 -15 0
-15 -1 -3 0
24 22 19 0
24 10 21 0
-14 30 18 0
30 -18 13 0
-1 -14 16 0
