c Coffinhead hard-core n=30 seed=91 ratio=4.0
p cnf 30 120
-24 -4 -29 0
28 16 -1 0
5 30 11 0
16 -2 -11 0
-24 3 -20 0
-6 -27 -20 0
8 -10 6 0
-26 1 13 0
-19 13 21 0
9 26 15 0
28 -30 22 0
-21 -22 -17 0
19 -25 30 0
28 23 4 0
13 25 8 0
2 -25 -21 0
-24 -1 -15 0
-22 -9 -18 0
-15 -5 -3 0
14 -25 19 0
-11 -25 -24 0
-16 23 -20 0
-29 25 18 0
-13 12 16 0
27 -9 -19 0
-22 -8 11 0
-24 23 1 0
-22 11 23 0
-6 26 -29 0
-27 -15 17 0
-28 -26 -27 0
11 -9 10 0
-19 17 -7 0
-22 -23 30 0
6 19 -23 0
-30 20 5 0
16 22 -1 0
7 -3 -5 0
-27 28 21 0
-10 12 23 0
3 4 20 0
9 -21 22 0
-27 6 -21 0
18 -13 15 0
-18 19 -15 0
-2 -3 7 0
8 -29 -15 0
-7 -24 6 0
-6 7 5 0
28 7 -8 0
-30 -28 13 0
5 20 -9 0
6 -24 -12 0
28 -29 -23 0
-29 -2 25 0
7 -25 13 0
21 -19 -29 0
6 -18 10 0
-15 -14 -23 0
-5 13 20 0
2 -5 -17 0
-4 -10 -21 0
18 -1 23 0
21 14 -25 0
24 1 8 0
-13 -4 -10 0
-13 12 -21 0
21 -18 -8 0
-29 23 11 0
-17 -22 -15 0
-15 -22 4 0
-22 -6 -2 0
15 -19 13 0
-2 24 -22 0
-11 3 7 0
-1 -18 13 0
26 -15 -23 0
13 -14 22 0
2 11 23 0
11 -17 28 0
-25 -15 18 0
27 -6 10 0
2 3 -14 0
-6 18 -8 0
-26 -4 -24 0
-17 -26 4 0
-2 -4 -13 0
6 8 -24 0
13 -16 15 0
-30 4 18 0
-25 4 14 0
-26 -12 15 0
20 -13 18 0
3 29 -27 0
-20 -3 12 0
6 19 -25 0
-28 -18 15 0
5 -12 -27 0
26 -30 17 0
30 5 7 0
7 30 17 0
-4 -10 -7 0
12 6 -21 0
-17 -15 -28 0
-20 -9 -22 0
-21 29 22 0
27 -5 16 0
-6 11 -22 0
7 2 -8 0
22 15 16 0
24 -21 -15 0
22 24 28 0
6 12 7 0
4 6 -20 0
26 -14 27 0
-11 27 -25 0
2 29 -24 0
-7 4 27 0
-2 -22 -28 0
-5 19 -6 0
