c Coffinhead hard-core n=30 seed=77 ratio=4.0
p cnf 30 120
18 24 21 0
-27 -16 14 0
30 -19 13 0
-11 7 15 0
2 11 -4 0
25 -30 13 0
-15 -8 -9 0
18 -3 -6 0
28 16 -19 0
-4 2 -28 0
-11 6 -30 0
14 -9 -25 0
11 3 26 0
-2 7 -18 0
-11 -4 14 0
-7 5 -19 0
-23 22 2 0
20 15 5 0
19 -18 -3 0
-12 2 18 0
-8 -9 27 0
-21 30 -12 0
-23 -7 -11 0
3 12 6 0
-17 11 2 0
19 -12 2 0
2 7 4 0
21 1 -29 0
-30 -3 -25 0
22 -5 8 0
-6 -23 -1 0
-12 -30 -9 0
-20 -17 7 0
-10 -19 6 0
5 28 -16 0
-21 1 15 0
30 -3 -14 0
-5 25 -30 0
-23 27 -16 0
-17 25 -10 0
14 -23 20 0
3 6 5 0
17 12 19 0
14 -3 -29 0
12 1 -15 0
-26 6 12 0
15 -20 -28 0
-6 2 -23 0
10 15 -7 0
5 13 14 0
5 4 -9 0
-20 7 -26 0
-21 -6 -13 0
25 18 -1 0
-5 13 -20 0
-16 27 23 0
4 -24 8 0
-28 -12 -1 0
-7 8 29 0
15 -14 27 0
22 -16 -2 0
16 27 4 0
-6 4 29 0
18 -10 26 0
30 -14 12 0
26 25 -11 0
8 -7 22 0
14 16 -7 0
-4 21 -6 0
12 17 3 0
-17 6 -18 0
-19 -7 28 0
-29 -10 -18 0
24 -20 22 0
-2 30 -29 0
-24 30 -27 0
24 12 14 0
-3 21 -10 0
25 5 6 0
7 -9 6 0
8 3 -19 0
11 -27 18 0
-26 8 24 0
4 -15 30 0
14 16 -26 0
-26 6 15 0
5 -25 22 0
-3 -9 -24 0
19 -21 24 0
22 15 -6 0
-10 -17 11 0
11 22 29 0
-29 17 25 0
-18 21 4 0
-22 4 26 0
12 -3 -24 0
19 -7 3 0
6 28 26 0
-11 19 2 0
27 1 4 0
-25 14 -19 0
-6 -22 -24 0
9 29 -21 0
26 -29 13 0
12 24 -30 0
6 27 -11 0
24 12 29 0
26 -5 15 0
-14 20 -12 0
14 -13 9 0
10 -16 -8 0
-21 13 -29 0
-25 26 10 0
-5 29 10 0
-1 2 4 0
-17 9 -24 0
-10 -9 19 0
29 -13 21 0
6 27 -14 0
8 -25 -24 0
