c Coffinhead hard-core n=30 seed=65 ratio=4.0
p cnf 30 120
22 26 14 0
24 -29 -21 0
27 24 17 0
-27 -26 9 0
-20 -7 18 0
-27 -26 9 0
9 -22 -28 0
-28 -22 -20 0
30 -19 -3 0
-10 17 5 0
-8 -9 -24 0
28 9 16 0
-25 -26 -20 0
-10 14 -8 0
-25 -9 -3 0
10 21 -4 0
-18 -21 -24 0
1 -3 26 0
26 -9 25 0
-24 -19 1 0
-20 22 -23 0
6 11 10 0
12 23 -24 0
-18 7 25 0
13 24 -29 0
-29 4 -5 0
26 13 -30 0
-4 7 13 0
22 -11 -23 0
-22 -25 -9 0
-2 11 20 0
-29 11 23 0
18 10 17 0
-18 -22 14 0
-20 6 -18 0
9 1 29 0
-21 -12 15 0
19 10 25 0
3 8 -21 0
-21 22 4 0
-27 -26 -4 0
-30 16 25 0
16 24 -15 0
17 23 -14 0
3 26 10 0
18 28 -21 0
-9 19 -12 0
13 -29 18 0
-23 29 -7 0
-6 2 3 0
-20 8 24 0
-23 2 14 0
-11 27 -17 0
-15 5 -11 0
8 -19 -17 0
-11 -20 -8 0
-20 -11 10 0
-5 -8 -16 0
30 5 -16 0
21 -8 10 0
-12 3 23 0
-19 20 22 0
-5 -16 -8 0
19 -13 1 0
30 11 7 0
21 -16 17 0
13 -30 -27 0
9 -20 11 0
-12 28 -14 0
-5 -4 26 0
6 -8 -7 0
26 -14 -15 0
9 14 -28 0
2 13 -6 0
12 30 -2 0
-6 -25 1 0
-22 -12 -14 0
-23 -22 -20 0
14 -21 -30 0
-23 -17 -12 0
1 -13 -7 0
1 10 -15 0
-13 27 8 0
16 -12 -29 0
-20 18 -25 0
-23 -17 -9 0
7 15 -19 0
-9 8 -27 0
7 19 -20 0
-17 27 -2 0
-10 6 1 0
9 2 -27 0
14 26 28 0
-7 8 -3 0
-18 -2 -27 0
-11 21 26 0
12 -28 15 0
12 24 27 0
-29 2 -14 0
-30 22 -15 0
-21 25 11 0
11 -21 13 0
29 3 -12 0
23 15 -2 0
-26 14 29 0
-13 3 -12 0
-8 13 -5 0
21 -2 17 0
12 27 -13 0
19 -9 -15 0
-13 28 -6 0
-30 -25 -22 0
29 -11 -8 0
29 19 -21 0
-19 -6 22 0
15 -24 23 0
-6 -1 14 0
-27 -12 -4 0
22 -24 27 0
-28 -13 12 0
