c Coffinhead hard-core n=30 seed=90 ratio=4.0
p cnf 30 120
1 29 4 0
-21 1 -28 0
1 -13 -2 0
8 -15 -26 0
28 4 -6 0
-8 -20 4 0
-13 -23 -26 0
-24 -7 4 0
12 17 -9 0
7 -13 -10 0
23 6 25 0
5 -18 -6 0
12 -9 -26 0
-9 22 -10 0
17 -9 -28 0
13 2 -9 0
25 6 -22 0
-3 -17 -24 0
19 -11 -14 0
17 21 -20 0
-28 15 -7 0
-21 24 4 0
-8 13 3 0
-4 -8 5 0
30 8 20 0
30 -12 -22 0
12 -27 11 0
1 -21 -23 0
28 22 27 0
1 22 -25 0
-11 -28 27 0
20 21 11 0
28 -30 7 0
2 -11 12 0
3 23 -8 0
28 19 25 0
16 29 20 0
-9 27 -3 0
16 22 19 0
-23 2 4 0
24 5 14 0
24 17 -22 0
20 -10 25 0
9 -30 -20 0
-22 13 -6 0
-22 -2 9 0
16 2 19 0
-19 9 -18 0
29 18 -7 0
-5 -26 -22 0
-21 -27 14 0
-25 -1 4 0
5 -25 22 0
-28 15 7 0
20 1 11 0
13 6 -5 0
2 30 -25 0
12 23 -1 0
-13 8 -22 0
9 -27 25 0
-14 16 -3 0
16 2 6 0
-23 -10 -9 0
15 -30 -29 0
28 5 29 0
26 30 14 0
21 9 27 0
-17 -30 -15 0
15 -11 -6 0
-9 -2 -11 0
23 -21 28 0
-27 25 -7 0
-10 -12 -20 0
21 19 27 0
-10 16 -30 0
-20 28 -30 0
16 -11 3 0
-5 -4 3 0
18 13 -2 0
-10 -1 -20 0
-2 18 -17 0
-12 -10 25 0
3 -22 -6 0
-27 -17 10 0
-25 13 -29 0
-4 6 3 0
12 -3 14 0
-18 -11 27 0
6 -3 23 0
15 27 -11 0
-3 17 -15 0
27 30 -15 0
-17 -19 12 0
-28 15 30 0
-28 -20 19 0
24 -10 25 0
-11 -25 -14 0
-4 -11 -26 0
2 -15 -26 0
30 23 3 0
-26 21 -6 0
6 9 -21 0
-11 -3 4 0
-7 1 -21 0
-27 -18 2 0
27 13 24 0
6 23 -25 0
11 -9 -26 0
-10 11 24 0
9 -3 -24 0
16 -3 29 0
20 26 -21 0
7 18 -12 0
2 -12 24 0
20 19 12 0
-21 -20 8 0
-29 2 27 0
26 -27 17 0
-8 -17 11 0
19 -3 6 0
