c Coffinhead hard-core n=30 seed=44 ratio=4.0
p cnf 30 120
-25 -13 12 0
22 -7 21 0
30 -6 -25 0
4 25 1 0
13 -6 -30 0
-17 -9 12 0
-14 -10 17 0
28 -2 -14 0
-22 5 -20 0
-16 30 -13 0
20 -24 -25 0
-6 -16 -30 0
20 -3 -16 0
15 29 11 0
-8 -20 30 0
-10 -16 1 0
9 -10 1 0
14 10 4 0
20 -15 11 0
-17 21 -6 0
24 8 -3 0
-11 -6 -15 0
-2 18 12 0
16 12 -30 0
28 -4 -9 0
-30 17 -27 0
-15 22 -17 0
5 -27 22 0
21 -25 -19 0
-11 22 -19 0
26 23 -28 0
7 -18 12 0
12 17 -26 0
7 -12 16 0
-7 -3 27 0
-22 10 -15 0
12 30 15 0
16 -17 -27 0
24 -10 -3 0
-13 -28 -6 0
6 11 28 0
-17 6 28 0
24 -18 -17 0
9 14 5 0
-7 15 13 0
-12 22 -10 0
-12 3 19 0
-8 -16 18 0
-5 -14 -11 0
3 13 30 0
26 -9 -7 0
-16 -22 27 0
2 -29 -6 0
-21 -17 7 0
-28 -17 20 0
25 -17 -30 0
-10 -12 -24 0
19 1 11 0
-13 6 -30 0
13 2 17 0
-10 15 -17 0
8 -19 -26 0
27 25 -5 0
-22 27 -29 0
-22 -26 17 0
19 -7 3 0
29 28 -23 0
-2 7 27 0
-21 5 29 0
28 12 -27 0
-24 5 -27 0
-22 -24 27 0
4 19 26 0
29 6 1 0
-6 -11 -25 0
-7 -2 6 0
-28 -17 24 0
22 -3 1 0
4 -29 16 0
-30 27 -29 0
7 8 19 0
-15 28 29 0
-11 -22 -12 0
-1 -20 22 0
11 7 -26 0
-9 20 3 0
-5 -28 13 0
16 -19 27 0
-28 10 22 0
-28 -23 22 0
-18 -19 -23 0
14 -18 19 0
-15 -19 -2 0
-26 24 23 0
-21 30 -25 0
-4 24 -21 0
-13 -14 -23 0
-29 22 15 0
-24 20 25 0
19 -25 13 0
-9 6 28 0
-10 -17 -25 0
13 -12 -21 0
26 22 -12 0
13 -12 14 0
-20 -23 1 0
-29 -5 -6 0
2 -6 -19 0
-11 9 -22 0
-1 -21 28 0
27 21 -20 0
29 5 11 0
25 -4 21 0
-7 -24 28 0
3 16 -5 0
-15 -24 8 0
-28 -5 13 0
-3 15 -14 0
-23 21 -9 0
8 -19 2 0
