c Coffinhead hard-core n=30 seed=62 ratio=4.0
p cnf 30 120
5 13 3 0
2 19 10 0
-7 5 -25 0
26 -5 -16 0
13 -16 -25 0
-4 22 9 0
18 22 -29 0
2 -18 5 0
23 -25 -4 0
-29 -6 23 0
6 3 15 0
27 -15 3 0
19 23 -6 0
-20 -5 25 0
18 8 16 0
8 10 29 0
16 -2 -19 0
-2 29 3 0
-30 26 8 0
26 -22 25 0
5 -16 -8 0
-27 24 -1 0
28 23 -8 0
-5 -26 -3 0
-17 18 -22 0
-2 -27 -15 0
-26 3 -12 0
-25 -21 -13 0
11 3 -6 0
8 24 -1 0
15 6 -27 0
7 -6 8 0
-17 4 -14 0
-19 -5 20 0
-7 25 -3 0
-22 8 -2 0
-5 20 12 0
24 -20 -8 0
19 -14 -5 0
-30 4 28 0
-10 -6 4 0
28 29 6 0
-6 -22 10 0
-28 -8 -30 0
7 23 -20 0
-28 -7 -22 0
-9 7 -19 0
-23 -10 28 0
-10 17 -20 0
18 -25 -19 0
14 -11 -27 0
19 -15 22 0
29 -4 19 0
-28 11 -21 0
-4 15 14 0
28 -3 -27 0
10 4 8 0
-10 24 1 0
-8 4 -1 0
3 -4 -9 0
-19 -14 13 0
7 26 -2 0
-4 -2 -25 0
-8 12 -15 0
-18 -22 25 0
27 12 11 0
11 -26 -6 0
8 -19 -28 0
-16 -3 10 0
-9 2 16 0
23 29 -16 0
4 30 -18 0
-17 12 27 0
21 29 15 0
-11 -22 -10 0
8 4 21 0
29 -18 -9 0
-24 25 -27 0
4 11 -17 0
-29 28 -7 0
-9 -7 22 0
-18 -7 -3 0
-6 23 -16 0
-3 -28 -4 0
20 -23 4 0
-10 6 29 0
19 -17 -28 0
-15 11 -20 0
15 -6 -21 0
-17 24 9 0
21 3 17 0
-11 18 -1 0
21 -30 -23 0
5 -14 -16 0
2 27 -9 0
11 5 -23 0
7 -8 -24 0
-17 13 -9 0
15 -17 16 0
-13 1 16 0
-7 23 12 0
6 30 -8 0
-8 28 -30 0
13 -4 9 0
-17 8 5 0
28 16 -18 0
-15 19 -23 0
26 -12 -15 0
-17 -14 18 0
-1 6 -29 0
-27 -3 -18 0
10 -6 14 0
-25 22 -14 0
-1 -6 -20 0
-29 -24 -30 0
15 -12 14 0
-18 -30 -28 0
18 -10 -27 0
9 10 -7 0
18 -15 -6 0
