c Coffinhead hard-core n=30 seed=96 ratio=4.0
p cnf 30 120
-7 -13 29 0
-13 -27 14 0
21 12 28 0
18 -27 -28 0
-6 20 25 0
-11 28 -14 0
-15 13 -9 0
19 7 -22 0
-12 13 4 0
-15 -20 28 0
20 12 -27 0
-3 18 27 0
-17 29 4 0
-14 -2 6 0
10 27 7 0
15 -29 -17 0
-8 -17 3 0
-7 24 -21 0
-6 11 22 0
15 8 19 0
-11 16 26 0
-21 5 29 0
26 7 14 0
3 -26 -25 0
6 -25 -5 0
12 20 9 0
-23 27 -21 0
17 26 -2 0
28 -4 -2 0
25 8 7 0
12 27 26 0
-11 5 -24 0
-1 13 -22 0
3 -23 6 0
12 5 -18 0
-20 -18 30 0
-13 -23 -5 0
5 -27 -12 0
6 -23 22 0
-20 1 -22 0
21 17 1 0
15 7 -25 0
-27 -13 30 0
24 23 -10 0
6 10 17 0
16 -28 -30 0
26 -4 30 0
19 -12 -14 0
-19 -30 -27 0
23 -8 6 0
11 -10 26 0
-10 -17 -2 0
1 -7 29 0
-28 6 -20 0
-17 29 -23 0
-7 18 -8 0
15 4 -25 0
-4 26 -10 0
10 -6 -29 0
-28 -19 -17 0
10 -15 -7 0
-12 16 -23 0
16 -4 17 0
26 20 -1 0
-14 -21 4 0
11 -30 -9 0
-1 2 -23 0
13 -10 -14 0
13 28 26 0
-18 29 -21 0
-21 24 -16 0
9 6 30 0
-5 -25 10 0
-15 22 7 0
-18 12 -14 0
-5 -12 4 0
-11 -8 14 0
-17 -4 -30 0
-23 5 -22 0
-20 4 22 0
-24 -6 -21 0
-23 14 4 0
29 27 -13 0
-13 29 20 0
-10 -28 24 0
-12 3 -29 0
-23 5 15 0
-4 14 -26 0
-4 -3 27 0
-21 29 26 0
-7 28 13 0
2 -26 25 0
-9 3 29 0
-15 -7 -1 0
6 -9 -11 0
10 -9 -2 0
-2 9 27 0
26 2 20 0
10 -18 -26 0
1 22 -6 0
17 11 19 0
-11 -4 7 0
-24 -3 -9 0
-23 8 -19 0
-23 -16 21 0
1 8 14 0
-18 -4 29 0
-2 11 21 0
7 20 1 0
18 27 -2 0
-12 24 -11 0
23 -20 14 0
-21 14 -4 0
-9 -13 29 0
-25 -17 -14 0
8 -24 -3 0
-14 -24 -8 0
16 8 4 0
-24 -5 20 0
2 -19 -13 0
