c Coffinhead hard-core n=30 seed=45 ratio=4.0
p cnf 30 120
16 2 -15 0
-15 -6 -23 0
-8 10 22 0
9 -19 -17 0
7 23 -10 0
-3 5 19 0
-9 12 -23 0
-6 1 -23 0
1 -20 8 0
-26 25 9 0
24 -13 -18 0
6 10 1 0
9 -3 -28 0
23 -4 -19 0
18 -23 -17 0
16 -29 -12 0
-10 29 -14 0
6 5 -8 0
-13 -4 30 0
-1 -30 -18 0
26 22 16 0
-6 -13 -4 0
6 19 8 0
17 3 20 0
19 -27 24 0
5 -13 -19 0
24 -12 19 0
-4 -8 20 0
10 -21 -30 0
4 -6 8 0
22 -6 13 0
-1 27 -19 0
-16 7 -5 0
13 5 7 0
2 -16 30 0
23 7 -6 0
-2 6 26 0
-8 -1 29 0
-26 -6 28 0
-19 -9 -21 0
-6 13 16 0
-1 4 -22 0
14 10 9 0
7 30 25 0
-28 -10 27 0
18 10 -21 0
-6 18 5 0
-19 -10 -18 0
3 -9 -22 0
28 26 -5 0
14 -19 2 0
14 -10 18 0
9 2 -30 0
29 -27 -17 0
-18 -26 -7 0
10 17 -19 0
14 -30 13 0
-27 28 -9 0
30 -5 -14 0
17 -12 29 0
4 -15 27 0
-3 4 -15 0
21 -27 -24 0
-26 19 6 0
-8 -16 1 0
25 14 28 0
-5 -23 15 0
28 -7 -11 0
16 -18 20 0
-14 18 -26 0
2 19 -26 0
-27 -23 -21 0
-20 -12 -4 0
-11 30 -29 0
22 28 2 0
25 18 -24 0
-24 -10 -2 0
22 -9 -10 0
12 -17 -18 0
-23 -13 -21 0
10 -2 -24 0
-24 20 -6 0
11 8 -10 0
-1 -4 28 0
-18 2 11 0
8 23 26 0
25 30 29 0
-1 -4 -11 0
-1 -15 6 0
-24 18 25 0
-14 -16 -24 0
13 -8 -28 0
10 -28 -23 0
-12 -13 -11 0
12 -3 15 0
-18 -10 -22 0
28 10 1 0
18 -27 -25 0
-6 -10 24 0
-5 -4 -29 0
-18 -5 7 0
11 -13 -28 0
-20 27 -16 0
-23 26 -24 0
-15 -16 -1 0
3 7 24 0
11 23 -22 0
-19 -6 14 0
-1 27 -8 0
-27 9 22 0
27 -4 -23 0
25 -1 -24 0
-14 -11 16 0
-22 -5 19 0
5 26 22 0
16 19 -24 0
-9 30 -6 0
-24 3 19 0
-22 15 17 0
20 -28 -11 0
