c Coffinhead hard-core n=30 seed=23 ratio=4.0
p cnf 30 120
-30 -28 -2 0
-5 6 -14 0
28 -8 21 0
24 -22 16 0
-14 7 -23 0
27 -26 29 0
-9 11 5 0
-11 -4 -5 0
-30 1 -15 0
19 6 -29 0
5 -3 2 0
-24 -22 -4 0
-12 7 2 0
18 10 17 0
27 3 24 0
4 16 -14 0
1 -24 -20 0
4 -10 18 0
-18 5 1 0
27 8 -9 0
-16 -3 22 0
-12 11 -23 0
4 -30 11 0
29 5 27 0
8 -2 -19 0
-22 9 -20 0
-6 -25 2 0
-7 -19 -8 0
-3 26 8 0
-2 -5 -21 0
10 -23 19 0
14 22 6 0
20 -17 13 0
-6 -30 4 0
-8 -7 29 0
9 21 -13 0
-22 -24 23 0
-3 24 -29 0
-26 21 -22 0
-16 26 22 0
15 -2 7 0
10 7 -28 0
7 -4 15 0
7 -24 26 0
-27 -14 4 0
16 3 -1 0
-11 -15 -2 0
-19 -15 4 0
-7 -1 14 0
4 -22 19 0
11 -2 30 0
6 29 -5 0
30 4 14 0
-22 -3 20 0
17 -5 -22 0
12 5 -21 0
28 -17 -12 0
29 2 4 0
-27 20 -3 0
10 -2 7 0
-16 -26 -18 0
-19 -10 30 0
2 6 4 0
-7 -11 24 0
-17 -13 -28 0
-1 -22 -5 0
6 20 -9 0
-16 8 -26 0
-14 10 -21 0
1 3 18 0
-6 27 -15 0
-4 -20 -22 0
-10 -9 -19 0
-15 -25 -5 0
10 -17 -29 0
13 14 -1 0
-25 -29 -12 0
28 9 3 0
-14 10 4 0
28 10 18 0
-1 6 30 0
-14 12 -18 0
-18 -6 7 0
4 -20 -15 0
1 17 -6 0
-18 22 -19 0
27 -28 -24 0
2 -1 18 0
-25 1 -30 0
25 17 23 0
-12 -27 -17 0
-26 12 -6 0
-30 16 -29 0
-30 14 1 0
-11 1 -15 0
-9 -22 12 0
-25 30 29 0
12 -18 -16 0
-27 13 -6 0
-27 -17 -2 0
-11 -17 29 0
-21 -13 -24 0
27 9 12 0
28 13 29 0
28 27 15 0
-18 -9 28 0
-5 -24 21 0
22 -14 13 0
-5 8 -12 0
-19 -20 -2 0
-4 26 -25 0
2 11 -25 0
-24 -17 -2 0
-22 11 10 0
-27 -20 24 0
19 -25 17 0
-5 2 -12 0
-28 29 -27 0
11 -30 15 0
-8 -2 27 0
