c Coffinhead hard-core n=30 seed=11 ratio=4.0
p cnf 30 120
-22 30 28 0
1 3 22 0
14 26 9 0
-9 8 22 0
3 -28 4 0
15 22 18 0
3 2 21 0
12 16 -22 0
-22 27 11 0
29 -10 26 0
-24 -10 8 0
-4 15 16 0
11 29 -24 0
21 -20 -15 0
3 26 -1 0
1 -20 -28 0
25 18 -27 0
-28 17 -12 0
26 23 -7 0
-24 26 13 0
-19 -18 -23 0
19 22 -28 0
-20 11 21 0
19 7 -1 0
13 -1 -22 0
-10 6 14 0
13 12 -14 0
-28 4 21 0
-18 12 30 0
-19 11 21 0
20 -19 -22 0
-14 -5 -24 0
25 8 10 0
-22 20 11 0
-16 -22 -8 0
-3 -21 -23 0
-24 8 -4 0
-19 27 -13 0
-7 -24 18 0
3 23 7 0
16 30 29 0
-24 -15 -2 0
29 6 30 0
-5 2 18 0
6 -24 -18 0
26 4 22 0
-20 19 -6 0
-27 28 24 0
-10 3 -14 0
2 26 3 0
-13 -23 -15 0
21 -25 22 0
17 6 -5 0
13 3 24 0
1 -27 12 0
13 -9 27 0
12 -20 -21 0
3 -24 22 0
-30 -20 -1 0
-11 1 15 0
-18 15 27 0
5 -23 20 0
20 -17 29 0
8 -26 16 0
24 1 -16 0
-26 25 28 0
4 20 27 0
12 -29 -5 0
8 3 6 0
21 -28 13 0
1 14 4 0
26 -30 -9 0
16 -5 12 0
1 -17 25 0
-10 -24 27 0
17 -21 23 0
-13 1 -25 0
-27 -12 -23 0
-12 7 -1 0
4 24 17 0
-13 -29 -1 0
-30 21 -25 0
30 -9 -24 0
-27 -18 23 0
-18 -2 -5 0
12 -1 23 0
9 25 14 0
-20 4 -6 0
9 13 28 0
-2 8 -21 0
15 -19 -16 0
4 28 -13 0
-19 -2 10 0
18 1 17 0
-15 -1 -26 0
27 -30 -19 0
22 18 -29 0
9 3 16 0
-26 9 6 0
3 -17 -28 0
25 4 -21 0
-2 -20 17 0
22 17 4 0
-16 -2 17 0
8 -14 3 0
-18 -29 -27 0
-11 19 -17 0
10 18 -7 0
-23 -7 -2 0
-10 5 24 0
-24 -2 -15 0
-10 -7 -4 0
-29 -20 1 0
-5 -16 -11 0
3 27 -15 0
-26 -21 17 0
-17 20 -18 0
-22 3 25 0
-5 26 19 0
-27 -20 30 0
