c Coffinhead hard-core n=30 seed=55 ratio=4.0
p cnf 30 120
-4 -10 12 0
-7 25 -17 0
-26 30 -13 0
-4 13 15 0
-12 9 -10 0
13 22 28 0
13 -23 -8 0
-23 -19 1 0
-16 30 -9 0
-9 -11 -23 0
19 15 -21 0
12 -11 -3 0
-20 -23 25 0
22 6 -13 0
-6 -29 -2 0
21 -3 15 0
4 1 25 0
-17 30 -3 0
-26 27 -9 0
-9 -13 -28 0
12 25 -26 0
-30 9 -15 0
16 -14 12 0
-30 24 -8 0
27 24 8 0
-5 -17 26 0
3 11 -28 0
-30 -3 -6 0
-24 8 28 0
16 1 -2 0
-28 27 -8 0
-19 21 -28 0
-4 -20 12 0
1 -12 -29 0
30 7 -13 0
-8 -4 11 0
7 -29 -26 0
26 -8 25 0
13 -3 -12 0
22 -29 16 0
27 -28 3 0
-12 22 -20 0
24 -12 -7 0
8 -4 3 0
15 -17 -10 0
-3 7 16 0
-15 6 -2 0
18 30 4 0
-2 -22 -26 0
6 5 4 0
-3 29 26 0
-24 3 -16 0
8 -13 29 0
10 9 28 0
16 3 -25 0
4 29 -10 0
-20 -7 29 0
29 5 26 0
-10 12 -17 0
-14 18 20 0
-7 13 30 0
9 -13 -12 0
11 -29 -5 0
7 24 21 0
-26 -22 1 0
26 1 16 0
5 -9 27 0
8 11 -7 0
2 -30 9 0
4 26 16 0
-23 -4 10 0
26 -9 11 0
7 -9 6 0
-15 4 -23 0
-15 -3 -5 0
2 24 -6 0
-22 -8 -23 0
-16 -18 -23 0
-3 -30 -27 0
22 -12 -30 0
-29 -15 9 0
-24 -14 30 0
-15 2 16 0
-16 3 18 0
12 -9 21 0
-17 3 -12 0
11 2 20 0
-17 18 -25 0
12 -27 -2 0
26 -8 -27 0
-27 9 22 0
-17 -3 12 0
-30 22 20 0
5 20 -2 0
-11 -9 -19 0
-9 -1 20 0
4 -13 10 0
-30 -6 17 0
-24 -28 -26 0
-4 29 25 0
5 14 9 0
-24 17 -12 0
-29 30 23 0
-15 -18 -13 0
-16 -17 7 0
-30 8 -23 0
10 -20 8 0
-28 7 1 0
20 -7 -23 0
2 22 -16 0
29 20 -16 0
-20 9 -27 0
24 2 -13 0
14 -18 2 0
-23 -14 26 0
30 25 29 0
-7 4 19 0
-28 6 14 0
21 22 -6 0
14 6 8 0
