c Coffinhead hard-core n=30 seed=84 ratio=4.0
p cnf 30 120
-9 1 -29 0
23 -16 -25 0
14 -9 12 0
26 17 -22 0
-5 10 30 0
29 11 -30 0
-7 5 27 0
12 -25 -6 0
-5 11 25 0
-29 2 10 0
17 -30 -3 0
9 2 24 0
21 -10 -19 0
-30 -29 -2 0
7 -19 15 0
-2 -9 17 0
-28 -25 14 0
-19 -5 -20 0
27 -13 3 0
8 -2 -25 0
-5 -3 -12 0
14 -3 30 0
29 -3 8 0
-1 12 20 0
-16 -24 -12 0
-28 7 22 0
-25 15 -4 0
6 -22 -27 0
25 -7 -4 0
-17 -20 22 0
-20 -25 24 0
-11 6 -18 0
-14 -24 -27 0
-27 -12 30 0
-3 -26 -27 0
28 6 -10 0
28 -6 -26 0
2 -10 7 0
20 16 -22 0
-11 -8 5 0
-22 9 15 0
-18 -17 3 0
3 -11 -21 0
6 -24 5 0
12 7 -16 0
-28 -21 -12 0
17 -30 28 0
29 -10 17 0
19 26 17 0
19 -18 -10 0
26 9 -22 0
-2 19 17 0
25 18 28 0
25 10 20 0
8 16 -1 0
-3 14 -30 0
-15 -17 25 0
29 24 -8 0
-9 -29 -23 0
-16 12 14 0
-18 14 21 0
-11 6 12 0
23 -5 -9 0
3 -6 11 0
-13 -25 27 0
21 2 -4 0
8 6 9 0
-24 -13 26 0
-7 -25 12 0
-23 12 3 0
-20 -23 16 0
3 30 22 0
14 2 20 0
27 -26 -30 0
29 14 -26 0
25 -7 14 0
5 2 3 0
-6 3 -15 0
5 7 -22 0
-1 27 20 0
30 -20 28 0
-24 16 8 0
-21 -10 11 0
-30 -15 6 0
19 21 -14 0
27 -15 28 0
-1 6 -21 0
-17 18 22 0
-6 10 -19 0
-9 17 26 0
-2 -4 -8 0
15 16 -6 0
-17 -10 5 0
-24 23 22 0
11 -8 17 0
10 -25 -30 0
-7 -21 -23 0
17 25 12 0
-1 -3 -27 0
8 12 -10 0
-15 20 -19 0
-28 -29 -16 0
-26 -3 17 0
22 -6 -27 0
-6 -25 -13 0
6 -22 1 0
-12 -6 30 0
-30 -20 17 0
3 7 28 0
-6 15 27 0
9 -15 -30 0
3 -27 -10 0
25 16 -22 0
1 -10 -11 0
-12 18 4 0
27 5 -1 0
-12 -1 -11 0
-8 -23 -25 0
-29 20 -2 0
10 -18 -3 0
