c Coffinhead hard-core n=30 seed=70 ratio=4.0
p cnf 30 120
15 -29 -14 0
25 2 -29 0
13 2 16 0
-4 -11 -6 0
11 -18 30 0
20 11 -8 0
-10 19 -16 0
-17 4 23 0
-30 12 -22 0
-29 -13 26 0
18 -30 10 0
-1 -9 14 0
10 14 -6 0
10 20 -29 0
-6 24 -22 0
14 6 -3 0
-10 19 -24 0
-30 13 20 0
29 -30 -13 0
-17 27 7 0
29 -7 -26 0
-4 -25 -24 0
15 11 -23 0
-20 26 9 0
25 1 26 0
5 -9 -26 0
9 -22 -3 0
30 6 26 0
16 -9 15 0
-29 12 11 0
18 3 -23 0
10 -22 2 0
3 6 -25 0
-23 18 -30 0
-5 10 -18 0
-21 -19 -11 0
-5 -28 -1 0
-27 -17 21 0
4 19 -12 0
5 4 -7 0
-5 -17 9 0
-17 -30 21 0
19 2 13 0
-3 11 -6 0
2 23 29 0
-30 28 -6 0
17 4 27 0
-5 -14 1 0
1 -13 17 0
-25 -18 19 0
24 -11 30 0
14 28 27 0
-21 30 -2 0
-8 18 -22 0
-20 -18 7 0
1 3 9 0
3 -27 26 0
-19 2 -24 0
-17 -15 11 0
-30 23 -11 0
22 25 6 0
5 13 3 0
-15 7 -30 0
-18 1 23 0
-10 26 3 0
-15 -9 28 0
20 23 19 0
-1 -22 9 0
-5 -2 -26 0
-11 25 3 0
25 -28 8 0
3 2 -4 0
-5 8 -29 0
27 4 -26 0
-10 -19 27 0
10 -14 -27 0
28 -8 -20 0
-30 -22 -18 0
-15 8 17 0
-3 5 -26 0
5 20 11 0
-24 27 19 0
-7 23 15 0
-18 -8 2 0
-30 -4 -3 0
-16 -7 29 0
-11 -17 16 0
14 20 6 0
-20 -15 -6 0
-23 5 -1 0
-13 -23 -3 0
-7 26 -20 0
16 23 20 0
1 -27 -2 0
-4 -7 11 0
-17 -27 -20 0
18 7 -13 0
17 3 -6 0
-18 21 -22 0
25 -23 -19 0
29 2 -16 0
-4 17 -2 0
13 -26 -12 0
8 12 4 0
8 3 12 0
-26 -14 -29 0
-2 6 -12 0
-18 23 -15 0
-11 20 -7 0
-23 17 20 0
10 -23 -18 0
22 -25 26 0
10 14 21 0
26 -9 19 0
-20 -24 8 0
23 18 21 0
-25 17 -30 0
7 13 29 0
-4 -24 12 0
-10 -11 -15 0
