c Coffinhead hard-core n=200 seed=1 ratio=4.0
p cnf 200 800
162 58 134 0
122 -40 5 0
39 149 46 0
-64 105 67 0
-51 186 -123 0
-5 -73 103 0
-187 68 28 0
-44 -150 -35 0
-68 -28 118 0
109 102 -4 0
-193 -9 153 0
36 123 -57 0
47 -124 174 0
115 -150 143 0
200 -35 178 0
156 -125 -71 0
-189 -192 -142 0
-18 141 -101 0
186 97 -139 0
-82 -7 40 0
-96 -197 101 0
92 123 133 0
-161 8 -115 0
113 135 -149 0
130 161 49 0
72 -6 -148 0
141 -76 -112 0
122 164 -67 0
93 -83 13 0
133 -42 74 0
-168 95 68 0
-16 198 112 0
-80 -12 171 0
-161 57 154 0
31 132 67 0
43 10 174 0
178 197 71 0
-175 -161 -153 0
-153 129 50 0
52 -107 -120 0
-190 35 -179 0
-59 -39 -181 0
55 -191 147 0
115 -139 -8 0
114 151 42 0
162 186 -5 0
-99 38 -189 0
-31 146 -77 0
94 -69 -19 0
-9 -60 161 0
-101 196 83 0
-47 -180 -148 0
-164 -17 12 0
-100 -146 167 0
-151 108 -188 0
8 -138 91 0
-153 45 -2 0
28 113 -158 0
23 -66 -76 0
118 -158 -50 0
-103 -112 -20 0
103 179 6 0
69 -173 21 0
166 -47 -105 0
10 37 11 0
-91 198 -11 0
127 -178 -163 0
73 -99 -66 0
-20 126 -121 0
-109 -42 -154 0
-155 115 161 0
-19 -170 117 0
-68 123 108 0
-111 -116 -27 0
40 -157 -39 0
144 8 96 0
50 64 -73 0
-20 48 19 0
-169 38 78 0
-87 -184 152 0
-76 -96 -119 0
164 77 -75 0
132 -21 51 0
100 -161 180 0
134 81 -181 0
133 23 150 0
-65 13 194 0
-184 155 -185 0
90 141 140 0
-46 114 80 0
151 -116 -193 0
186 -140 -133 0
36 -146 -176 0
-121 194 -92 0
-78 -101 28 0
101 26 12 0
65 -167 37 0
-142 62 93 0
151 162 26 0
43 -119 55 0
99 -196 -37 0
-95 76 119 0
104 49 -190 0
9 185 192 0
26 195 -44 0
-177 -189 -102 0
51 128 -74 0
24 -115 -180 0
-20 65 -82 0
-149 -136 -125 0
-74 -114 -67 0
170 89 -52 0
187 -58 16 0
-131 -73 35 0
120 -140 -71 0
-182 175 -158 0
139 38 24 0
132 183 -26 0
122 44 -46 0
-37 66 -118 0
-133 37 -41 0
-148 165 57 0
189 -23 122 0
-47 -50 -145 0
129 -26 -50 0
-107 -194 -47 0
-56 -127 145 0
-163 -9 -38 0
-145 -1 153 0
101 10 -120 0
5 120 62 0
69 59 -54 0
9 -83 41 0
191 -125 -155 0
106 12 127 0
-172 -25 158 0
31 -161 -83 0
44 -60 9 0
-198 -169 -85 0
-160 125 177 0
147 -166 -153 0
192 96 42 0
169 -35 -119 0
-57 -145 -66 0
58 110 159 0
-96 -2 -154 0
20 -121 -187 0
-73 37 -129 0
78 -129 -138 0
-174 -20 186 0
-40 107 44 0
-156 151 45 0
-177 179 4 0
73 -127 -61 0
-31 45 -90 0
-129 106 -82 0
173 -38 58 0
-197 -130 -13 0
15 160 61 0
149 172 72 0
-145 -42 -59 0
-82 -197 -135 0
193 -156 105 0
-117 153 -5 0
-65 84 -36 0
-103 -43 50 0
110 94 -23 0
36 -102 -172 0
-168 81 -120 0
-135 65 50 0
-27 -16 -137 0
-100 148 74 0
41 -5 72 0
-199 -139 49 0
-84 70 -28 0
2 44 -51 0
-108 125 36 0
-12 -192 -133 0
180 -149 -167 0
197 -115 127 0
115 -45 44 0
-111 38 -124 0
-168 137 -164 0
-55 50 102 0
128 18 30 0
184 -189 49 0
-197 -77 20 0
-71 59 -103 0
-170 -160 -155 0
-62 -112 -13 0
-65 -48 93 0
-120 -178 -128 0
167 131 192 0
12 -78 46 0
-139 150 65 0
-155 -95 151 0
59 -122 35 0
15 -144 35 0
112 49 -157 0
-128 83 -57 0
85 22 145 0
167 51 177 0
-19 60 126 0
-115 -116 198 0
130 87 19 0
-112 200 -25 0
-86 132 -69 0
-1 -39 183 0
146 27 -104 0
178 135 -7 0
-1 105 130 0
-117 -145 -70 0
178 -52 87 0
51 129 -30 0
84 -187 78 0
-81 -128 183 0
-146 129 31 0
-171 -64 -141 0
72 -183 -83 0
83 87 -200 0
152 -2 -112 0
146 -6 -167 0
-162 82 -20 0
70 76 -21 0
80 81 136 0
-125 118 19 0
79 -172 -93 0
26 -182 178 0
-77 -105 14 0
166 -80 143 0
-22 97 -113 0
-115 167 -37 0
-63 12 174 0
-79 -125 -98 0
67 172 -99 0
-179 -54 -45 0
-51 30 128 0
-90 -45 22 0
177 -152 -127 0
-40 101 110 0
-69 138 -104 0
144 104 133 0
4 114 -104 0
-191 175 -34 0
124 -75 31 0
165 -54 156 0
44 138 -130 0
136 106 177 0
25 -86 -11 0
161 160 194 0
89 -59 -38 0
-80 -19 1 0
32 -178 -12 0
20 -152 39 0
-74 6 -100 0
30 -194 44 0
-11 49 -134 0
163 -45 38 0
59 106 -11 0
103 -175 198 0
-127 -23 -48 0
-108 -53 42 0
-55 109 -115 0
144 -115 23 0
168 -35 197 0
-112 -101 33 0
-61 -110 -76 0
-91 142 9 0
3 113 133 0
35 198 13 0
-29 -118 -193 0
163 118 -128 0
100 -51 63 0
18 -32 -57 0
153 98 -145 0
42 -27 105 0
18 -166 -51 0
-157 130 71 0
14 42 95 0
-32 132 -24 0
-85 156 -194 0
34 105 115 0
-102 9 171 0
108 -4 28 0
118 -98 133 0
-6 59 -103 0
-184 -151 102 0
-79 52 -23 0
200 -32 -35 0
-42 157 -168 0
58 17 -22 0
-59 -142 19 0
61 -152 -190 0
-119 -85 165 0
-99 106 -193 0
-131 -73 187 0
-47 -134 -192 0
-156 -139 -119 0
-44 -15 21 0
-192 181 136 0
192 -14 130 0
-32 -162 13 0
28 -91 -142 0
23 151 143 0
-33 -163 2 0
89 28 -32 0
-69 112 -177 0
37 -186 -2 0
38 -126 15 0
150 -115 31 0
11 87 -95 0
-84 164 -114 0
-19 -194 103 0
-34 9 168 0
100 23 -129 0
-56 32 -91 0
102 -121 110 0
-46 6 104 0
-100 -90 -120 0
-58 -2 -76 0
99 -196 -187 0
68 -139 -125 0
-103 8 -182 0
-154 -113 -186 0
163 24 188 0
-176 7 -56 0
-108 -97 -13 0
-97 -6 48 0
184 -131 95 0
-177 167 -37 0
75 85 -193 0
95 -127 69 0
30 180 141 0
167 98 27 0
-6 18 -186 0
23 -36 -63 0
-30 89 3 0
-35 -157 19 0
-107 26 -122 0
179 -41 4 0
31 -175 -111 0
55 59 31 0
-172 98 43 0
57 -60 -119 0
52 4 186 0
107 179 122 0
-181 199 92 0
91 190 77 0
-85 110 183 0
-156 -179 -130 0
68 -17 3 0
131 -120 -113 0
30 -128 146 0
-149 -28 -171 0
-101 72 11 0
69 -37 -58 0
16 -133 -198 0
-13 150 -81 0
131 179 11 0
99 174 -78 0
-52 50 -167 0
120 44 -14 0
-72 109 78 0
-32 69 -182 0
-192 28 -39 0
1 63 101 0
-126 -134 -172 0
60 -149 -114 0
33 101 152 0
172 151 -4 0
-127 6 -115 0
-156 -112 66 0
-103 180 198 0
47 -143 -82 0
197 27 -4 0
24 -112 170 0
87 178 61 0
106 -167 85 0
71 -42 -184 0
-199 30 197 0
-158 -63 -72 0
-79 -100 62 0
-53 -198 -168 0
17 62 -89 0
-132 93 -4 0
-94 -36 33 0
-154 146 185 0
-162 -19 -169 0
197 -45 56 0
109 6 11 0
74 -98 100 0
-66 118 200 0
-137 -181 -58 0
-100 -117 -185 0
-199 5 -158 0
76 34 74 0
95 -185 126 0
189 199 -165 0
-144 -56 107 0
-93 186 33 0
-83 29 63 0
21 103 -95 0
-35 -63 14 0
157 57 -90 0
49 52 -107 0
-63 -80 139 0
127 -7 -176 0
-115 152 -192 0
130 149 128 0
-149 170 160 0
-134 -153 83 0
-15 -77 6 0
25 150 166 0
173 16 122 0
146 -101 -118 0
31 24 -18 0
-193 153 -179 0
-177 150 147 0
-94 -70 96 0
-51 -63 25 0
-51 26 -181 0
-151 16 -28 0
2 119 149 0
165 -158 44 0
-101 -3 53 0
-169 -104 157 0
114 -76 109 0
130 22 -161 0
-159 1 -109 0
-82 26 73 0
-150 -11 -198 0
-97 130 -70 0
-96 50 -59 0
3 -40 112 0
-74 -130 -55 0
-139 114 47 0
72 -121 -102 0
-176 -73 27 0
-3 -38 -37 0
17 119 22 0
-54 2 -200 0
-160 -165 71 0
67 45 -36 0
100 179 -152 0
54 -67 46 0
85 -105 -6 0
146 66 55 0
-132 101 -152 0
-8 -155 -11 0
187 5 -154 0
-109 -128 71 0
91 -190 -193 0
-170 56 -188 0
155 42 154 0
191 -128 186 0
127 149 -71 0
23 -46 -87 0
-182 124 -193 0
-11 53 62 0
4 -51 85 0
-181 55 -13 0
133 -183 -35 0
-40 139 -146 0
-85 -165 197 0
-144 -176 78 0
13 -146 197 0
130 -87 53 0
-97 2 -32 0
-5 -2 106 0
-6 -61 63 0
-138 129 122 0
143 77 -196 0
-46 161 -47 0
-96 137 -114 0
135 -11 -44 0
-70 -105 197 0
100 -92 185 0
90 157 -113 0
-129 -185 -140 0
-38 36 132 0
73 -7 112 0
-31 63 39 0
-195 80 -119 0
170 30 4 0
1 2 68 0
25 84 54 0
59 -162 -191 0
-142 31 87 0
47 76 170 0
-174 180 -97 0
101 -199 15 0
-138 -46 128 0
-8 19 175 0
164 -15 12 0
-164 -163 118 0
120 -128 78 0
-18 -141 128 0
177 -161 164 0
87 74 1 0
174 104 41 0
-46 148 -39 0
111 84 -113 0
-93 145 169 0
19 -174 -116 0
-198 193 -4 0
-10 -76 40 0
-116 -16 96 0
-155 105 -102 0
-117 3 62 0
-85 -106 50 0
-55 -168 -89 0
-20 129 -150 0
-91 9 42 0
174 22 186 0
-63 90 -95 0
-179 106 35 0
32 -26 12 0
73 -174 -36 0
177 -17 56 0
32 93 -36 0
129 96 186 0
-40 -127 -169 0
92 177 -164 0
117 96 109 0
94 156 -196 0
-48 59 189 0
-122 191 55 0
190 -183 -199 0
193 -152 178 0
85 134 -111 0
37 -39 167 0
-140 177 -149 0
147 -130 -131 0
-66 -63 -88 0
50 31 163 0
-102 -94 147 0
-145 -40 94 0
117 166 81 0
128 138 -123 0
182 -126 -158 0
-178 147 -184 0
-63 86 -117 0
166 32 -120 0
107 139 -94 0
-145 64 -136 0
-171 35 77 0
-82 177 27 0
-64 155 85 0
-46 176 64 0
164 177 -174 0
-80 138 -128 0
84 75 -29 0
-145 -12 190 0
121 113 -19 0
7 -135 -189 0
-160 39 -195 0
-159 -7 36 0
180 192 -126 0
-149 -175 -150 0
29 -114 81 0
-37 75 -87 0
-66 -165 -10 0
107 176 -2 0
-147 -197 90 0
46 10 -125 0
51 -136 -31 0
-149 -197 -1 0
-81 -159 112 0
-80 159 -154 0
67 -186 10 0
34 -33 157 0
170 -89 105 0
80 63 -140 0
-174 195 144 0
66 -175 -58 0
-58 -196 112 0
-42 45 17 0
7 198 -85 0
-200 -189 -89 0
-189 -22 -102 0
-3 103 198 0
9 -200 -187 0
-148 82 -77 0
152 -112 42 0
98 147 -86 0
113 -174 33 0
-54 89 69 0
124 -99 -6 0
196 -187 -17 0
158 82 -146 0
75 183 -50 0
184 158 -29 0
-19 -173 -179 0
-54 -143 -99 0
-159 196 -106 0
110 42 -19 0
-121 69 153 0
-14 -64 -13 0
-196 59 169 0
-125 -98 -25 0
-37 -8 91 0
-162 -46 -188 0
-11 -38 -199 0
135 -27 123 0
94 -200 141 0
-122 -58 178 0
90 46 -80 0
-71 -176 151 0
-45 10 27 0
-98 -126 -108 0
73 162 -114 0
-115 -41 84 0
-33 95 114 0
181 -47 138 0
-45 -160 -27 0
-92 -158 -70 0
50 79 -56 0
179 115 -175 0
-139 -63 -10 0
-109 -65 -39 0
120 -27 -172 0
118 142 41 0
117 88 18 0
-165 55 -129 0
-127 -54 52 0
70 -96 186 0
-182 -27 -78 0
142 -136 120 0
-113 -172 -181 0
-56 -35 -105 0
51 176 -25 0
-92 65 -64 0
113 122 -28 0
9 163 76 0
80 -177 174 0
173 -123 84 0
110 24 139 0
-64 16 -116 0
86 -125 -137 0
-110 146 -191 0
12 184 99 0
-131 109 25 0
181 182 112 0
-69 27 48 0
177 -61 42 0
-1 41 -117 0
138 -44 164 0
45 -75 -130 0
-85 188 48 0
17 158 -48 0
112 47 174 0
-82 101 99 0
178 -72 -166 0
130 -131 86 0
22 9 -92 0
132 31 140 0
188 -3 -9 0
197 -83 177 0
141 -23 132 0
25 64 -20 0
-156 161 93 0
-138 86 55 0
-54 178 -132 0
75 -191 168 0
-149 51 -118 0
-162 88 -3 0
63 45 65 0
16 153 34 0
22 104 -59 0
-29 118 -123 0
194 -192 -156 0
-35 132 66 0
-77 176 -96 0
-188 105 -122 0
-40 26 -150 0
88 139 186 0
49 87 -80 0
-98 99 6 0
154 -86 -171 0
-173 -69 -197 0
177 -91 -191 0
56 73 -109 0
-170 -129 13 0
73 173 -158 0
-124 -139 73 0
199 -120 -139 0
2 16 -173 0
-14 -181 -129 0
-40 47 102 0
187 89 -24 0
106 -82 -105 0
-135 -49 56 0
-66 118 -10 0
86 -35 133 0
-192 124 146 0
35 -7 158 0
-63 -167 -21 0
104 103 -141 0
-58 92 -13 0
48 142 98 0
109 79 163 0
-195 -2 50 0
161 -143 -4 0
130 -107 -47 0
197 -27 25 0
-140 -164 -17 0
-129 -97 -48 0
7 94 119 0
5 -17 189 0
-175 190 9 0
54 108 -152 0
98 -31 -129 0
-92 156 11 0
-136 -133 -176 0
-174 -165 -134 0
157 -3 91 0
41 -145 100 0
72 37 -5 0
146 -130 39 0
-93 -157 28 0
-94 174 -155 0
-62 192 -129 0
187 82 -58 0
104 -79 66 0
120 -180 -39 0
109 121 138 0
-62 124 144 0
-29 67 -171 0
-103 104 92 0
-55 174 43 0
102 -142 -125 0
108 2 78 0
-58 -64 193 0
84 157 -194 0
74 -144 40 0
-25 52 -2 0
-165 56 148 0
82 92 181 0
-192 165 164 0
-29 -153 132 0
-27 -111 52 0
158 172 -14 0
-175 32 62 0
50 16 107 0
127 13 -144 0
64 -110 123 0
33 -109 -149 0
-103 -97 37 0
-45 162 -115 0
147 106 1 0
-152 -6 -22 0
-64 157 -47 0
-39 -149 -45 0
20 -164 -157 0
81 58 -60 0
176 42 -14 0
170 45 -49 0
84 101 20 0
-157 -171 19 0
-122 -190 -23 0
-164 -92 74 0
-193 -81 -42 0
-8 -7 168 0
21 -175 -13 0
93 -6 -62 0
184 94 56 0
-71 -92 59 0
57 -107 -16 0
181 -24 99 0
-57 -179 52 0
28 104 -6 0
-10 151 -40 0
-87 111 -19 0
-80 35 -157 0
-36 4 -147 0
-105 -193 131 0
-81 -198 -31 0
-128 -163 -111 0
-53 -117 -86 0
118 -157 93 0
34 51 194 0
86 133 -115 0
44 26 -189 0
-155 -95 -19 0
19 -58 184 0
-28 173 25 0
193 -160 21 0
135 121 -79 0
158 -164 63 0
179 -96 -25 0
-168 61 -19 0
28 24 30 0
-147 -18 -100 0
63 135 -83 0
-107 42 -21 0
-186 -81 -150 0
198 89 157 0
-94 140 127 0
94 -148 84 0
80 83 -167 0
