c Coffinhead hard-core n=47 seed=35 ratio=4.0
p cnf 47 188
-31 22 3 0
44 2 12 0
24 23 25 0
40 47 32 0
-47 21 -40 0
-37 -23 1 0
-6 -22 -2 0
38 -42 39 0
32 -45 -46 0
31 43 -36 0
-6 18 33 0
-37 32 -12 0
-24 -45 -3 0
-18 -5 17 0
-45 -10 -44 0
28 8 39 0
32 44 31 0
18 -28 3 0
-28 -2 30 0
-33 -42 19 0
22 -21 -26 0
-42 10 16 0
37 -2 -35 0
-19 33 -11 0
22 -43 28 0
-43 -26 3 0
-4 -43 -2 0
41 26 36 0
-18 30 44 0
-16 15 30 0
39 34 21 0
18 15 23 0
-19 -44 -29 0
-28 -26 -38 0
38 -10 -5 0
-46 32 39 0
33 -3 -1 0
47 18 -24 0
25 14 22 0
-4 9 38 0
45 43 -15 0
-40 15 -46 0
-25 18 -32 0
15 36 9 0
-6 -22 16 0
-46 -7 12 0
2 -7 -38 0
39 -3 8 0
-26 -28 22 0
46 25 9 0
42 5 -8 0
39 -20 27 0
-3 -16 45 0
5 -1 -21 0
25 41 -40 0
-6 -41 35 0
-24 -18 29 0
21 -19 -4 0
-20 8 -26 0
33 19 14 0
21 47 -31 0
26 10 36 0
45 -13 -44 0
10 22 31 0
14 40 19 0
1 7 42 0
-37 -3 23 0
11 -18 -41 0
6 1 -40 0
43 -15 11 0
16 31 -17 0
20 29 30 0
-42 6 -37 0
-26 -7 -13 0
-44 37 -9 0
14 -15 32 0
-6 -38 -3 0
-40 4 -13 0
-21 -11 -45 0
-12 -26 -4 0
19 28 20 0
-45 43 4 0
14 15 -39 0
-31 45 44 0
-23 18 -34 0
-8 34 32 0
20 -27 23 0
-7 -23 -4 0
-19 -47 -26 0
14 17 -29 0
36 -34 -39 0
38 -1 -6 0
-13 -3 -4 0
-42 -11 18 0
-38 1 -40 0
21 -46 -11 0
15 16 -24 0
-8 37 -43 0
6 -26 13 0
37 44 -45 0
37 13 10 0
39 24 -26 0
-4 6 -40 0
-47 44 31 0
21 25 -39 0
11 8 -7 0
-35 -43 27 0
33 -3 32 0
-18 5 17 0
36 18 -21 0
-16 6 31 0
-39 -30 9 0
-4 -18 23 0
41 -13 -21 0
-35 25 15 0
33 7 -11 0
27 24 -1 0
-5 35 33 0
35 14 30 0
45 -1 6 0
-24 -38 42 0
28 21 24 0
-42 40 26 0
30 7 -46 0
44 -11 -4 0
-33 15 1 0
47 -9 6 0
-45 -29 35 0
25 20 6 0
-9 29 46 0
-5 28 -41 0
31 41 44 0
-27 -15 16 0
11 -33 46 0
42 -26 -25 0
-30 1 14 0
25 12 21 0
-9 25 -11 0
-21 2 -38 0
8 44 -33 0
-35 -17 47 0
-28 -21 -9 0
-3 -38 1 0
10 -5 37 0
8 -10 22 0
-41 2 -47 0
-24 22 -12 0
31 21 -41 0
17 -38 -41 0
-14 11 -29 0
41 -13 -44 0
-34 -2 36 0
-10 -47 28 0
-32 17 38 0
21 -13 -35 0
-25 -27 -2 0
23 16 43 0
-4 -29 40 0
-20 26 32 0
-26 2 -38 0
18 33 -12 0
37 -13 -41 0
-27 -17 42 0
-42 9 -26 0
38 17 40 0
18 35 -8 0
-44 -20 -33 0
-47 34 -2 0
6 -27 36 0
-1 -43 10 0
-13 -32 38 0
2 -46 -16 0
-46 3 -23 0
-14 2 5 0
29 1 -36 0
-46 -8 -1 0
44 46 -27 0
-10 24 -6 0
-44 -5 45 0
23 -13 39 0
38 -39 27 0
-3 11 -2 0
43 -4 30 0
36 -44 -10 0
13 6 -37 0
-25 31 -32 0
19 -7 47 0
-22 25 12 0
