c Coffinhead hard-core n=47 seed=41 ratio=4.0
p cnf 47 188
41 8 22 0
17 -18 9 0
42 17 5 0
-26 -15 2 0
37 39 47 0
-38 7 40 0
10 8 -13 0
-26 5 40 0
-8 -46 38 0
9 -24 -15 0
-16 -8 9 0
-29 -46 -38 0
-34 33 -25 0
-10 34 24 0
-19 -36 -43 0
-18 -46 -13 0
-2 16 4 0
37 -30 -44 0
-37 -20 -46 0
-17 -22 -32 0
17 -33 -31 0
7 8 -35 0
26 -18 -7 0
-21 32 37 0
26 -23 -24 0
33 -11 -5 0
39 43 -11 0
-22 -16 21 0
-19 36 39 0
7 -14 37 0
28 -10 16 0
-26 -20 5 0
24 8 9 0
43 -37 19 0
-44 -5 7 0
27 3 36 0
-21 6 4 0
-5 16 15 0
21 -45 39 0
25 -7 -31 0
-25 3 -7 0
18 -21 32 0
-46 11 -34 0
-37 15 9 0
15 -47 -45 0
-15 -5 -14 0
-25 -36 -35 0
39 18 -45 0
-24 4 -1 0
28 -23 -14 0
47 -1 12 0
2 -27 -46 0
-28 32 -30 0
-13 -6 -44 0
5 -17 -27 0
-38 -1 -27 0
28 -12 5 0
-38 10 13 0
-1 -33 44 0
-46 25 -6 0
41 -2 -47 0
22 -33 -40 0
-20 11 47 0
20 24 27 0
13 -25 -11 0
37 -45 1 0
-25 18 30 0
22 -21 37 0
-38 -15 -23 0
-7 -23 22 0
-44 -28 29 0
13 19 6 0
42 19 18 0
36 47 45 0
-12 -47 46 0
-47 -29 -30 0
15 33 -32 0
-36 -32 -24 0
-23 -30 47 0
8 -40 30 0
-24 1 -2 0
34 31 20 0
4 26 1 0
7 -3 42 0
19 -16 -14 0
-13 -44 39 0
43 35 4 0
31 23 47 0
40 -9 11 0
-6 32 25 0
-27 2 5 0
12 -21 30 0
-3 23 24 0
-43 38 -16 0
-35 -8 26 0
-11 -37 -40 0
18 42 -30 0
8 17 -26 0
-37 27 23 0
21 -37 41 0
35 -6 24 0
42 46 9 0
-8 -40 -5 0
-35 42 27 0
-33 41 -12 0
14 11 8 0
-1 11 12 0
-2 22 -24 0
23 -33 -44 0
-14 22 -41 0
25 -42 -27 0
30 26 -29 0
-29 27 35 0
9 -6 -16 0
44 10 -36 0
-19 38 -3 0
-40 -2 -33 0
9 41 -10 0
-11 -27 -24 0
-30 -44 -11 0
47 32 4 0
-18 -6 38 0
40 20 -17 0
20 16 2 0
5 -46 -47 0
10 17 -14 0
-24 -32 39 0
-16 -9 47 0
-9 36 -11 0
-8 -32 -42 0
-13 47 36 0
24 17 39 0
-47 -2 -27 0
7 13 -21 0
1 -30 4 0
-13 26 45 0
13 -34 -41 0
41 -39 27 0
-26 -8 -42 0
-37 -33 -44 0
-36 -37 28 0
-32 -47 -21 0
45 39 -19 0
-19 39 -4 0
-7 -40 -36 0
2 -15 -22 0
44 3 13 0
16 -44 17 0
10 -40 24 0
-47 9 15 0
27 -14 -41 0
-42 36 -6 0
35 -39 -16 0
-23 -32 6 0
-17 27 -23 0
31 8 41 0
8 45 31 0
35 27 32 0
-23 5 14 0
31 -33 -44 0
46 30 -7 0
33 24 -20 0
11 -1 -8 0
-1 22 -6 0
32 36 -44 0
-47 42 -30 0
-28 40 13 0
42 -32 37 0
46 -13 -24 0
21 16 7 0
-35 -43 -28 0
-21 -19 37 0
46 -18 -30 0
19 16 -13 0
32 -22 -8 0
24 -12 45 0
22 -11 -32 0
-3 -24 29 0
19 4 36 0
-38 -33 -5 0
-40 45 -39 0
-37 42 29 0
29 35 -15 0
-35 25 -4 0
31 -41 -26 0
-23 44 39 0
-10 46 20 0
-32 17 33 0
