c Coffinhead hard-core n=47 seed=64 ratio=4.0
p cnf 47 188
-13 -41 -22 0
-9 -8 10 0
-24 -8 -14 0
-10 42 -43 0
-44 15 19 0
-2 -16 -35 0
11 47 37 0
-6 -27 -43 0
27 -33 2 0
26 -11 17 0
-25 -20 9 0
-25 17 -20 0
-47 -46 10 0
-43 30 38 0
-41 19 -11 0
26 -47 -6 0
-12 -41 19 0
19 5 -44 0
14 1 -18 0
-37 -43 -38 0
5 24 -44 0
-20 -45 17 0
-5 -40 24 0
-16 47 -4 0
-34 4 29 0
39 -23 -28 0
-23 4 -5 0
25 32 24 0
-33 -8 10 0
34 6 20 0
-32 -37 22 0
43 14 20 0
20 11 -42 0
-4 -47 -11 0
-6 -15 -37 0
-36 -20 2 0
-43 30 -40 0
-42 -20 24 0
20 9 28 0
-22 -12 3 0
14 5 -38 0
-24 2 43 0
39 -31 32 0
37 -15 -44 0
-33 -1 -11 0
-15 46 43 0
-36 25 4 0
31 -29 -3 0
45 -39 -22 0
42 -14 4 0
29 15 -47 0
-25 -13 -36 0
2 40 6 0
-6 -13 12 0
36 6 4 0
3 31 44 0
-22 -35 39 0
-39 28 -32 0
-6 4 -32 0
-27 -21 6 0
44 45 29 0
33 3 -46 0
18 -16 -19 0
36 -41 -8 0
41 -1 28 0
45 46 4 0
22 -1 14 0
-12 -36 -24 0
14 -2 -39 0
-9 -46 -14 0
18 -9 -27 0
25 30 26 0
-14 -38 -25 0
37 -36 -27 0
-21 35 18 0
21 14 45 0
8 -13 -17 0
-3 -28 1 0
6 -22 10 0
1 3 35 0
-13 -33 6 0
47 -3 11 0
-36 -6 -25 0
2 -16 9 0
19 25 -43 0
-35 23 37 0
-8 -17 23 0
31 11 2 0
9 -47 -22 0
20 27 -39 0
-31 -16 45 0
-16 43 9 0
-16 -30 4 0
13 5 24 0
-44 4 -22 0
-37 10 -33 0
-47 -45 1 0
-39 -35 12 0
3 -45 -8 0
21 -33 -7 0
14 -3 -6 0
-25 -10 -27 0
-40 -13 46 0
-29 36 -24 0
-5 44 -41 0
14 17 15 0
-38 4 -40 0
-46 -31 18 0
16 26 -35 0
10 -37 27 0
12 19 30 0
-47 37 -43 0
-33 -21 32 0
-15 41 -42 0
-7 19 12 0
-25 33 8 0
41 -22 -12 0
23 -27 26 0
-29 -21 4 0
-43 28 3 0
-17 4 21 0
41 44 1 0
-30 43 25 0
42 28 47 0
-27 39 29 0
-34 -1 -42 0
-43 23 -31 0
-4 -9 36 0
-3 45 13 0
29 21 -14 0
24 26 44 0
-13 -27 -10 0
40 -36 44 0
42 -21 -26 0
-3 -35 41 0
31 14 13 0
17 -43 -36 0
21 -6 27 0
38 18 30 0
-3 37 -13 0
15 1 -5 0
23 -31 45 0
22 42 -23 0
-47 16 37 0
-44 4 1 0
29 39 12 0
10 28 -34 0
12 19 10 0
43 -21 -24 0
-19 -5 11 0
-44 -30 16 0
39 5 13 0
-24 31 42 0
8 42 -9 0
-14 -36 -27 0
-3 26 -7 0
-22 25 -10 0
-2 3 47 0
23 -22 -10 0
-8 -24 -2 0
-23 44 -7 0
-11 -10 41 0
42 34 -43 0
19 44 18 0
2 43 -12 0
-10 39 42 0
-18 -23 -36 0
26 -22 -47 0
47 -12 -35 0
-27 -28 35 0
7 -33 29 0
6 40 -2 0
9 -33 -6 0
34 -30 -8 0
-45 21 20 0
-42 -28 -18 0
-7 -38 28 0
-10 22 -38 0
14 -24 -26 0
41 11 -47 0
2 20 -44 0
4 35 12 0
35 -11 47 0
-42 -40 46 0
-47 -7 23 0
-13 -16 -17 0
-31 35 -39 0
10 -3 4 0
