c Coffinhead hard-core n=47 seed=65 ratio=4.0
p cnf 47 188
33 16 35 0
40 -32 -7 0
25 35 29 0
-28 -32 15 0
-17 -4 1 0
-40 -13 15 0
38 -18 -37 0
-19 -18 -24 0
1 -43 -45 0
-29 23 45 0
-7 -5 -33 0
39 34 40 0
-13 -8 -30 0
-26 37 -2 0
-19 -47 16 0
-23 35 26 0
-35 47 -28 0
-8 46 1 0
-18 -39 45 0
-34 -19 17 0
24 -34 29 0
-12 24 7 0
-16 10 42 0
-38 -44 -22 0
8 -26 -22 0
21 -20 47 0
19 45 -30 0
-47 13 43 0
28 -10 -9 0
-10 -45 -4 0
-24 45 19 0
-7 37 23 0
9 47 26 0
-28 -27 40 0
-31 4 -6 0
46 4 5 0
-8 -11 -20 0
46 -4 -43 0
2 -44 -43 0
46 2 -8 0
42 23 29 0
29 -13 45 0
14 -42 -16 0
-17 25 -39 0
19 32 9 0
21 -29 -38 0
-4 22 -31 0
-21 15 -12 0
-29 -7 21 0
44 -7 12 0
39 32 38 0
-36 16 25 0
-33 15 -13 0
-42 41 -37 0
3 -21 -33 0
-16 11 9 0
1 -21 41 0
-42 -25 6 0
47 -45 21 0
-26 28 7 0
30 -28 -22 0
-36 9 14 0
-45 -41 -5 0
6 -27 -32 0
8 -16 -11 0
-5 36 38 0
39 -12 -43 0
25 -44 32 0
-46 10 -27 0
-33 -45 10 0
5 16 -42 0
2 17 -27 0
29 12 -18 0
44 25 -40 0
36 31 -41 0
-43 -23 16 0
-41 -17 -26 0
-12 28 21 0
17 -8 40 0
-25 -30 2 0
-37 -21 -28 0
-1 43 -25 0
-32 -30 35 0
5 -2 -14 0
-41 20 -23 0
-2 -8 -46 0
46 15 -8 0
-29 42 -1 0
-21 36 -46 0
-28 12 19 0
47 -20 -32 0
45 -9 4 0
9 40 -10 0
21 -4 -16 0
-45 -31 -29 0
11 5 8 0
-25 19 13 0
38 -32 -12 0
8 4 16 0
22 -4 -17 0
-23 39 28 0
42 -3 17 0
24 15 -10 0
42 17 -26 0
-47 40 30 0
-27 24 -7 0
-27 5 -18 0
44 -5 1 0
12 47 -26 0
9 -21 -44 0
-29 47 -21 0
-10 -12 -41 0
33 -6 -14 0
6 41 -24 0
-11 -29 27 0
16 -24 2 0
-10 -45 17 0
-37 1 28 0
40 3 -36 0
42 -38 14 0
41 -6 -14 0
-21 18 16 0
14 38 -4 0
-6 30 -44 0
-47 -18 15 0
34 -29 -3 0
-16 -7 6 0
3 16 15 0
18 11 -33 0
-30 -10 -14 0
26 -6 23 0
9 31 -22 0
40 -28 24 0
36 -14 41 0
-4 21 43 0
-39 -33 15 0
40 -24 15 0
45 25 23 0
20 -39 -31 0
-28 20 -15 0
18 -22 27 0
-36 2 -44 0
-21 43 -42 0
-10 -44 28 0
-30 7 31 0
28 35 22 0
-41 -28 -5 0
11 37 35 0
42 -21 24 0
16 41 36 0
40 8 -10 0
-16 -32 -18 0
25 24 -46 0
13 -2 24 0
-16 38 -8 0
-9 -5 -40 0
35 1 20 0
-6 -4 -28 0
36 -22 -7 0
-39 -2 -32 0
20 46 31 0
-9 28 14 0
45 7 -5 0
7 -20 43 0
-34 43 33 0
22 -12 32 0
23 2 -27 0
-2 35 -39 0
13 -17 -38 0
-6 -24 26 0
-7 -1 3 0
-24 19 20 0
-11 8 -45 0
-31 3 -16 0
-39 46 -2 0
-27 17 10 0
17 1 39 0
31 42 22 0
-13 1 19 0
-13 -19 42 0
11 33 7 0
12 -30 -33 0
29 -34 47 0
19 21 9 0
-22 47 18 0
-32 35 -16 0
24 -26 2 0
-35 33 10 0
