c Coffinhead hard-core n=47 seed=60 ratio=4.0
p cnf 47 188
-24 23 -6 0
37 -24 29 0
27 -2 44 0
31 43 -32 0
47 -26 -25 0
-23 -14 -22 0
-34 12 1 0
32 35 -21 0
-35 29 38 0
35 9 -41 0
-47 34 -40 0
-40 -37 30 0
24 32 -3 0
15 -10 -7 0
-9 1 7 0
38 37 36 0
29 -25 -28 0
-43 45 47 0
-19 -36 24 0
-11 -37 4 0
-30 -2 21 0
25 4 35 0
6 33 -45 0
-23 -14 -45 0
-15 -39 8 0
-25 -23 -12 0
24 1 -41 0
47 -26 -28 0
-36 8 -2 0
-41 43 -9 0
31 1 40 0
-27 -40 -16 0
2 -47 -28 0
46 -20 -5 0
-21 10 41 0
44 20 -34 0
47 1 -11 0
35 19 -8 0
-11 44 -6 0
31 -35 5 0
29 -17 -31 0
-40 42 -3 0
-25 -9 3 0
-9 -18 7 0
-7 -8 13 0
1 22 -28 0
-42 -25 -14 0
-29 24 -45 0
-42 -1 11 0
-21 -16 -28 0
-21 -22 5 0
5 15 -30 0
-7 -18 -38 0
27 28 -46 0
24 38 -35 0
-7 27 -8 0
-43 -7 -39 0
-34 14 40 0
-8 -5 9 0
-15 23 28 0
-25 -40 -20 0
1 -3 45 0
-22 -11 -8 0
1 38 -4 0
6 18 -15 0
31 47 15 0
-39 30 -33 0
16 35 -47 0
33 30 -26 0
-23 -29 25 0
5 16 29 0
-14 26 -24 0
-40 5 16 0
-5 -15 -35 0
-38 -30 12 0
15 7 -6 0
-15 39 -21 0
-46 -5 -31 0
-2 45 -37 0
15 -13 17 0
-39 -32 -17 0
29 26 -30 0
-37 -9 3 0
30 -1 26 0
46 5 -27 0
29 -28 46 0
-32 36 -23 0
35 41 34 0
16 -27 19 0
42 -33 29 0
38 -11 -7 0
-24 5 -2 0
2 21 -11 0
-12 -9 38 0
9 1 -36 0
41 -23 6 0
-14 40 -47 0
32 -36 -42 0
-25 -20 19 0
-7 -15 45 0
18 -38 45 0
-2 -16 14 0
28 31 -21 0
45 -22 -39 0
33 3 37 0
-30 23 -24 0
36 44 11 0
19 -41 -12 0
2 39 18 0
-11 33 -26 0
9 -3 10 0
47 -12 -27 0
19 -39 -25 0
25 -20 8 0
30 -3 -42 0
-47 45 -29 0
5 -31 -8 0
25 6 20 0
-6 -36 17 0
-23 -44 11 0
9 -26 -17 0
38 3 6 0
-46 -37 -15 0
12 34 24 0
-4 15 -29 0
-36 -30 -4 0
-16 -6 3 0
-42 -15 -31 0
-10 43 -25 0
44 -12 20 0
-19 -33 -47 0
-10 -5 -16 0
45 -13 3 0
-33 -16 -13 0
-34 -14 20 0
18 23 -6 0
-37 -20 -14 0
-11 -9 37 0
42 -11 -34 0
-44 10 26 0
-47 -32 36 0
11 3 19 0
-38 7 -45 0
-3 10 29 0
16 3 22 0
-1 40 20 0
47 -18 -29 0
35 -20 4 0
17 -42 20 0
17 -14 -26 0
-47 24 16 0
-16 -26 -4 0
-29 24 -30 0
-25 -29 -6 0
-20 16 -46 0
15 1 -26 0
-18 -33 14 0
18 7 -41 0
46 -2 -36 0
34 20 46 0
13 -12 -24 0
12 -17 3 0
31 19 -4 0
-17 14 -2 0
-16 -45 41 0
11 -15 41 0
23 -36 12 0
-47 18 -16 0
-4 25 -22 0
-42 25 17 0
-18 35 46 0
-9 -22 19 0
7 21 -8 0
35 12 28 0
27 -19 4 0
13 -28 38 0
30 -12 -10 0
36 1 41 0
7 -39 34 0
-13 11 -9 0
-13 -2 -1 0
-30 11 -28 0
6 46 -13 0
13 11 -25 0
-10 5 -18 0
-18 -17 4 0
-2 8 39 0
41 -22 -31 0
