c Coffinhead hard-core n=47 seed=54 ratio=4.0
p cnf 47 188
14 30 -5 0
44 47 9 0
11 -45 18 0
-18 -38 -6 0
-17 -5 -36 0
34 5 -15 0
6 1 4 0
18 -40 -16 0
-25 20 -14 0
6 1 -38 0
-27 -31 -14 0
-25 -11 8 0
32 12 25 0
-43 -46 -1 0
-33 -47 43 0
-6 -5 13 0
39 8 2 0
23 -16 -45 0
-14 -21 24 0
-6 -16 -41 0
24 16 33 0
-34 21 -18 0
-8 -10 2 0
-1 40 7 0
38 37 -18 0
7 46 44 0
-2 -35 36 0
19 -24 -22 0
-23 15 21 0
-34 4 -40 0
28 19 -1 0
3 15 -39 0
-40 15 18 0
-26 -12 -31 0
-29 -16 35 0
47 44 -33 0
-19 29 -9 0
40 -29 -23 0
30 -4 3 0
16 -18 -35 0
10 -2 47 0
17 47 -41 0
31 -21 -15 0
-37 44 29 0
-8 1 29 0
-17 45 -31 0
-42 12 38 0
9 -21 -28 0
-13 -18 -41 0
10 -4 2 0
29 -16 47 0
-33 -29 -11 0
-22 32 -8 0
34 47 -9 0
-12 -8 47 0
29 11 13 0
-41 6 -43 0
4 -34 35 0
-30 -22 -31 0
-26 29 37 0
-27 -10 -26 0
-3 7 -31 0
-26 24 -44 0
14 -7 -34 0
10 -27 -23 0
41 -11 31 0
18 25 6 0
34 25 45 0
39 -43 15 0
26 28 -8 0
22 -13 41 0
41 -3 15 0
-22 -34 -13 0
-15 -32 -18 0
46 33 -9 0
-32 -44 11 0
-22 14 40 0
14 39 26 0
29 19 -27 0
-40 -41 -30 0
41 -34 6 0
-32 6 -4 0
-31 10 -3 0
-12 18 28 0
1 -3 31 0
-26 -15 13 0
27 -19 -33 0
-3 14 -42 0
-20 -46 -5 0
-37 -40 -16 0
46 17 -26 0
32 27 39 0
9 -17 28 0
24 6 37 0
24 3 34 0
14 -28 -3 0
8 10 -16 0
13 32 -22 0
14 -23 28 0
18 -11 -36 0
-11 -29 17 0
-47 17 26 0
33 -4 11 0
47 -24 -14 0
46 -30 -3 0
-25 -39 42 0
41 -5 -4 0
19 7 -2 0
-30 -4 -12 0
41 12 28 0
-22 14 19 0
-30 -33 -46 0
13 -43 28 0
33 -12 -4 0
-29 9 -6 0
16 43 -22 0
-32 35 -40 0
-17 35 2 0
-10 37 2 0
9 -46 44 0
-26 -27 -43 0
-15 -1 43 0
-15 32 18 0
21 14 -7 0
29 -33 -15 0
37 33 -47 0
-3 14 -44 0
28 17 5 0
38 -18 19 0
-1 -9 8 0
9 1 6 0
-47 -15 -25 0
-18 -29 -3 0
-27 -31 22 0
37 39 -9 0
-19 39 -12 0
6 -44 -28 0
32 -28 -27 0
-2 40 -37 0
-8 -5 -6 0
22 -20 15 0
-4 12 -30 0
-45 -9 31 0
-35 26 -34 0
-26 23 -19 0
-9 1 -14 0
-31 39 -14 0
22 -10 -34 0
11 22 37 0
-39 -32 17 0
-32 16 27 0
-43 -40 16 0
-32 37 -10 0
43 -36 8 0
3 -24 -34 0
24 28 -32 0
-11 5 -42 0
38 21 -22 0
-6 -32 35 0
10 -24 11 0
38 -31 15 0
33 17 13 0
-32 -7 -11 0
-39 12 9 0
47 25 39 0
47 -43 27 0
-25 -40 -37 0
22 -18 37 0
7 15 -13 0
5 28 -30 0
-4 -43 31 0
19 29 22 0
-17 1 -33 0
-16 35 -38 0
-1 23 -41 0
-4 34 -27 0
-26 41 -46 0
-5 29 -9 0
-38 41 21 0
36 20 23 0
5 13 -21 0
15 2 40 0
28 -39 -43 0
6 -2 -40 0
-28 -37 26 0
47 -26 -43 0
-28 44 10 0
-10 -17 -44 0
