c Coffinhead hard-core n=47 seed=62 ratio=4.0
p cnf 47 188
39 30 20 0
12 10 44 0
-7 23 -6 0
33 -45 -23 0
15 -45 -16 0
-41 5 -2 0
41 16 5 0
-32 43 -27 0
8 27 -14 0
-1 -15 -35 0
19 42 15 0
11 8 -40 0
6 4 3 0
-18 -39 -36 0
26 30 31 0
5 36 13 0
25 9 -23 0
-34 -24 4 0
14 -22 21 0
39 34 -5 0
32 30 -28 0
-34 -22 19 0
-10 4 8 0
-12 -32 -37 0
-35 -20 3 0
-44 -33 -31 0
-13 -24 14 0
-20 -14 -1 0
-39 -7 2 0
15 2 45 0
-29 37 1 0
-27 4 40 0
-6 34 38 0
-1 -16 11 0
-13 -47 -23 0
17 44 33 0
-15 10 28 0
44 41 -5 0
20 -47 -11 0
-6 3 13 0
-29 -20 34 0
44 23 18 0
-20 -38 9 0
-9 -35 8 0
-3 -12 1 0
4 -10 18 0
-30 -32 -9 0
-3 38 29 0
45 -37 -11 0
40 -37 -43 0
45 -32 -11 0
2 -37 1 0
5 -3 32 0
-45 8 -30 0
-40 11 16 0
19 -21 -43 0
20 39 38 0
28 41 -17 0
40 44 -23 0
-35 21 -2 0
-11 -45 -23 0
-1 47 32 0
16 30 -24 0
17 9 -34 0
21 37 -30 0
-10 25 -42 0
-34 37 40 0
15 -45 47 0
19 -1 25 0
-29 22 14 0
-17 -40 47 0
3 44 35 0
-12 42 -46 0
-36 -32 -6 0
-16 15 3 0
39 25 26 0
37 35 -1 0
-30 -39 22 0
-43 13 -34 0
-28 -36 25 0
-21 -39 -35 0
3 41 -5 0
-5 36 17 0
19 -12 -11 0
-45 -32 44 0
-46 27 -2 0
23 37 22 0
-13 -6 -18 0
37 -25 35 0
-2 -39 -8 0
41 2 21 0
45 3 -34 0
25 -20 -47 0
8 -33 -36 0
22 35 4 0
-7 -13 -15 0
-20 -27 -22 0
38 3 -1 0
-10 -42 -34 0
14 -36 1 0
-30 35 42 0
-9 35 3 0
21 46 31 0
-20 -26 37 0
-28 19 -22 0
-5 -23 19 0
-42 25 2 0
43 -44 -23 0
-29 5 46 0
-37 -10 23 0
39 -1 19 0
-4 -38 -17 0
4 1 12 0
35 -34 24 0
46 -27 10 0
36 -8 16 0
28 -15 5 0
39 34 25 0
15 21 44 0
7 -17 39 0
-31 32 -14 0
35 -8 40 0
45 19 44 0
-18 32 26 0
29 -41 -24 0
15 -39 -8 0
11 -30 44 0
10 7 -39 0
-18 -14 25 0
-1 -3 -6 0
17 -13 -34 0
35 -11 -43 0
-6 38 -3 0
-17 -25 -30 0
30 -37 47 0
-47 -44 -13 0
40 -34 -13 0
46 -38 -16 0
-39 37 3 0
20 -22 -37 0
42 -28 -37 0
-20 -30 -36 0
-43 -11 -29 0
-22 -7 14 0
26 47 15 0
-16 1 27 0
31 -28 46 0
20 18 37 0
-13 42 -31 0
-9 -17 35 0
30 9 35 0
5 -42 17 0
-45 11 -29 0
37 -17 -22 0
41 18 23 0
36 7 -37 0
-6 17 -4 0
18 12 33 0
46 -13 4 0
15 -31 -41 0
11 23 -33 0
-22 -37 44 0
-13 -35 43 0
-18 5 36 0
-6 35 -11 0
21 28 44 0
-10 -34 -45 0
-2 18 3 0
22 8 10 0
-25 -18 -46 0
6 -22 -30 0
16 47 33 0
-40 -20 32 0
-2 45 -37 0
23 -46 -31 0
45 -40 24 0
-4 -21 -1 0
40 -14 33 0
32 28 7 0
-10 -23 -28 0
-44 -47 37 0
29 -43 39 0
41 29 -34 0
34 -20 -23 0
31 -10 -2 0
-10 45 13 0
40 30 28 0
42 -23 -17 0
