c Coffinhead hard-core n=47 seed=56 ratio=4.0
p cnf 47 188
-35 7 2 0
-4 -43 -42 0
-45 -12 40 0
-44 34 8 0
32 -8 -10 0
47 -43 10 0
39 -13 -31 0
43 3 37 0
35 -46 -14 0
28 -22 -44 0
-21 45 47 0
-28 34 6 0
8 34 -7 0
-24 -4 -45 0
33 -31 -25 0
15 38 -46 0
-32 16 45 0
17 9 -38 0
-38 27 33 0
-45 16 -24 0
-24 19 11 0
3 11 17 0
-27 -29 -30 0
18 5 15 0
21 -1 -38 0
16 -24 -13 0
5 4 12 0
3 1 -44 0
33 -16 34 0
-31 -18 47 0
-5 -1 11 0
32 20 -2 0
-35 42 -17 0
-18 -21 22 0
-4 -21 40 0
-29 -15 -23 0
-6 -34 -3 0
19 39 18 0
-12 -37 30 0
46 -35 -40 0
-21 28 -7 0
-20 37 35 0
-8 20 -10 0
17 -40 2 0
1 16 -7 0
40 36 -34 0
-8 17 -13 0
45 3 -9 0
-30 27 -46 0
-15 25 -37 0
39 33 32 0
-46 -31 4 0
-35 -19 -13 0
-34 -45 -22 0
25 23 -36 0
35 -16 -45 0
24 12 -2 0
-9 15 44 0
38 12 -28 0
-30 -36 40 0
-28 29 6 0
20 7 6 0
30 20 -13 0
-19 47 -25 0
35 23 46 0
42 -32 3 0
-22 4 5 0
-13 12 38 0
12 -11 28 0
-16 8 34 0
29 -15 -5 0
27 15 32 0
5 4 43 0
6 -45 42 0
-29 -16 -46 0
2 -12 -32 0
-15 -29 -8 0
-16 -15 -11 0
-22 -8 2 0
-21 -42 33 0
-34 -28 23 0
-27 -5 -1 0
-36 11 26 0
4 42 33 0
23 -3 -44 0
-10 -40 -38 0
-36 -45 -39 0
2 -36 34 0
-5 -13 9 0
45 14 -28 0
-33 5 2 0
32 -11 -14 0
-47 30 -1 0
46 -37 25 0
-35 17 -32 0
-30 -47 -44 0
45 32 15 0
42 -37 10 0
-23 45 24 0
14 13 -10 0
-38 28 30 0
24 -35 -4 0
-21 -13 12 0
9 -43 23 0
38 -34 -6 0
-42 -43 20 0
34 26 11 0
-47 39 -22 0
-22 45 12 0
33 -19 -7 0
2 -36 46 0
30 -14 -34 0
-12 -23 -47 0
-3 2 22 0
-21 13 -8 0
19 -20 -14 0
-19 21 -26 0
16 19 -12 0
-10 -35 -7 0
-4 -3 36 0
-43 -21 -42 0
-28 -36 -25 0
25 31 9 0
-33 5 -18 0
-33 -8 44 0
-30 32 5 0
-36 -19 43 0
-11 -23 -2 0
37 -33 -34 0
28 27 -42 0
27 10 47 0
22 6 -40 0
33 -2 -35 0
36 -25 -35 0
-8 -19 -21 0
14 22 -13 0
-16 45 -19 0
-13 -18 37 0
47 6 17 0
18 -36 11 0
-17 29 46 0
-30 -13 -22 0
-10 -3 35 0
15 -9 -35 0
6 -25 -21 0
25 -21 6 0
-9 5 38 0
26 41 -5 0
-24 15 -3 0
-28 26 38 0
32 17 -5 0
-43 38 46 0
-34 -17 20 0
-11 7 42 0
35 -12 20 0
47 -2 45 0
-9 -4 3 0
40 19 -45 0
30 -23 -13 0
19 33 21 0
-3 -34 -10 0
-38 -35 -30 0
-16 31 45 0
-45 6 42 0
-9 -14 1 0
35 28 21 0
23 -32 -42 0
-14 -32 42 0
-29 -33 32 0
-33 23 -36 0
27 -1 -35 0
-12 33 -3 0
-26 12 38 0
-7 -1 -41 0
-1 -38 -9 0
14 -8 -36 0
-17 12 21 0
19 -6 43 0
-41 4 2 0
2 -24 -17 0
-45 27 25 0
-13 -45 -10 0
26 3 -21 0
21 -31 -14 0
26 -35 -3 0
31 23 -3 0
-29 31 -24 0
-27 -45 46 0
