c Coffinhead hard-core n=47 seed=25 ratio=4.0
p cnf 47 188
13 -33 30 0
5 -44 27 0
-19 -17 2 0
8 23 -5 0
19 28 -41 0
5 -41 -29 0
-46 -4 8 0
-47 -32 18 0
8 -28 2 0
3 -15 -12 0
22 32 41 0
-12 22 4 0
4 -25 -8 0
10 -18 26 0
7 -29 -30 0
-39 -43 13 0
-41 -15 24 0
41 36 -28 0
-29 3 5 0
-6 5 8 0
42 23 29 0
-3 -6 18 0
-22 18 -8 0
45 -4 -41 0
22 21 -14 0
-38 -37 15 0
21 -44 -37 0
-26 43 13 0
-16 44 -25 0
12 -17 18 0
-43 -22 -13 0
-3 -1 -6 0
27 26 -24 0
42 -34 -6 0
-22 -8 47 0
-23 20 -43 0
35 -24 -9 0
28 -43 -31 0
24 -21 45 0
-22 -18 -45 0
15 14 26 0
4 46 -7 0
17 -36 -46 0
-42 30 36 0
20 -2 -5 0
39 -42 -44 0
4 -6 19 0
30 18 16 0
31 -37 -46 0
11 15 7 0
27 -5 -12 0
-36 31 13 0
-11 23 -31 0
33 -12 -31 0
3 -36 -30 0
-10 -40 -12 0
27 -42 12 0
28 4 36 0
-41 -11 -24 0
-47 30 -38 0
-21 -9 -39 0
-38 -34 -45 0
28 -39 -43 0
46 -10 23 0
-3 24 -11 0
8 41 -5 0
-17 -15 -4 0
23 45 43 0
47 -6 25 0
-17 35 7 0
45 30 -12 0
-41 -29 -8 0
-5 34 10 0
-30 11 -43 0
-30 42 6 0
-30 -26 11 0
38 24 -9 0
5 -28 -34 0
15 14 -41 0
-20 15 44 0
29 -2 20 0
-23 -28 -29 0
15 40 -25 0
12 46 18 0
13 -10 14 0
-47 27 -21 0
-10 37 18 0
-22 32 -42 0
-37 7 -47 0
9 27 -7 0
-10 -2 11 0
-46 -30 38 0
-26 30 40 0
36 42 32 0
-20 39 -6 0
10 25 -20 0
33 29 -32 0
-19 25 45 0
38 -36 10 0
34 -31 -26 0
-19 -31 17 0
40 31 17 0
-45 -12 -24 0
-41 36 -22 0
41 8 -25 0
15 44 33 0
36 14 -20 0
-32 7 -15 0
-10 -34 -25 0
44 -36 -17 0
44 -13 43 0
-28 -24 -27 0
-36 7 43 0
-22 47 -19 0
33 36 32 0
28 9 -43 0
-1 -4 11 0
-28 2 -5 0
-23 17 -43 0
-47 16 36 0
-35 -33 6 0
19 -10 24 0
44 37 30 0
14 4 18 0
3 25 -15 0
-43 -25 1 0
-19 15 10 0
4 42 11 0
-7 5 33 0
4 25 -32 0
-27 -8 18 0
-13 20 36 0
45 -44 17 0
-45 -1 9 0
-35 19 -23 0
-45 -36 -20 0
-40 -18 28 0
35 4 43 0
-36 16 -47 0
47 -27 -1 0
14 20 47 0
35 42 18 0
42 39 23 0
37 -29 26 0
-23 34 42 0
-31 -39 20 0
2 -41 21 0
-36 19 23 0
-43 30 10 0
-1 -24 -32 0
-47 11 18 0
34 -45 -9 0
-25 -2 8 0
6 47 31 0
-26 32 -36 0
38 19 15 0
44 -46 -32 0
-7 11 31 0
-35 -6 -14 0
-24 -4 -29 0
-22 -3 39 0
21 -2 -27 0
24 13 -20 0
6 -41 5 0
-34 5 -44 0
-39 -35 -4 0
10 39 -23 0
-2 29 -5 0
-9 35 -16 0
29 5 -23 0
39 -8 -21 0
-26 -14 29 0
1 8 -9 0
25 -7 30 0
-22 10 -37 0
6 25 -37 0
1 39 46 0
30 19 18 0
-5 14 34 0
26 -28 -15 0
18 30 7 0
40 23 -32 0
22 42 8 0
-42 -14 -30 0
3 -44 -45 0
43 -35 -44 0
-39 32 -27 0
22 -15 -6 0
