c Coffinhead hard-core n=47 seed=2 ratio=4.0
p cnf 47 188
19 -17 4 0
-31 17 -23 0
2 34 32 0
-15 18 -21 0
-33 -11 -20 0
-29 38 -47 0
34 -13 -17 0
18 -43 -13 0
2 -4 33 0
35 15 -27 0
13 -27 18 0
2 12 40 0
-8 -20 43 0
11 -2 -34 0
12 -21 -11 0
-33 -46 -17 0
-25 8 -17 0
-26 28 -3 0
40 -17 -30 0
29 14 34 0
2 21 4 0
7 38 -32 0
15 -36 1 0
-12 -19 -35 0
-42 -35 -3 0
-36 -7 -38 0
6 40 -47 0
11 46 -32 0
36 -5 4 0
-27 44 -45 0
-23 10 36 0
5 11 -21 0
-22 -1 34 0
15 -29 -43 0
21 35 -28 0
30 4 31 0
45 40 32 0
-10 -35 -42 0
-45 -39 -12 0
19 -10 -8 0
-15 -35 -33 0
14 -8 3 0
45 -4 33 0
30 -17 20 0
3 -14 37 0
-11 -14 -6 0
29 -41 -44 0
-31 4 24 0
44 30 32 0
13 2 -8 0
-43 31 12 0
30 32 -15 0
1 -38 -29 0
-41 33 31 0
-17 19 -13 0
6 -4 10 0
-37 -35 16 0
21 15 26 0
1 -8 -11 0
-15 -26 -8 0
-9 45 38 0
3 -28 32 0
-33 -11 -36 0
-5 45 -36 0
6 -10 -46 0
37 16 -42 0
14 -17 -5 0
-7 29 40 0
6 13 -24 0
-37 4 33 0
-4 -41 2 0
40 -6 27 0
-46 -25 30 0
-46 12 -40 0
-6 -43 -17 0
-32 14 -31 0
-28 7 10 0
12 -38 -43 0
45 -9 -28 0
-30 22 28 0
20 39 -41 0
31 36 -29 0
-17 -33 -16 0
21 -20 -6 0
-32 5 -3 0
-25 39 21 0
-17 34 -40 0
-9 -27 -19 0
40 -34 18 0
41 -2 10 0
-3 23 24 0
-10 -22 -26 0
-5 24 -43 0
-19 -23 -3 0
39 -34 43 0
-1 -31 21 0
38 29 -30 0
-42 -35 -15 0
-30 -9 22 0
39 6 -46 0
-35 -28 24 0
17 -28 3 0
-4 28 -29 0
-43 -6 -17 0
-12 -6 -3 0
-44 -30 16 0
42 40 -19 0
-12 -20 -22 0
-22 32 -42 0
-47 -39 36 0
19 -38 -3 0
-29 1 -24 0
-29 -20 46 0
35 -29 -21 0
-3 -15 -4 0
44 38 26 0
19 -13 -7 0
45 -35 18 0
-29 -34 26 0
34 -22 -24 0
5 -21 44 0
21 -34 30 0
-38 -33 -21 0
7 40 27 0
-41 31 -35 0
30 4 20 0
10 15 30 0
-1 29 -43 0
35 -16 -8 0
-13 -27 -37 0
18 -46 -26 0
-2 -5 9 0
-17 -45 -35 0
-32 -18 31 0
-20 -17 23 0
-21 26 11 0
24 29 7 0
-45 -35 30 0
-28 -43 40 0
-23 -44 46 0
40 -38 -3 0
1 -29 20 0
-15 9 -32 0
8 32 -30 0
-8 -14 40 0
-7 5 26 0
-21 -30 -46 0
37 -25 -3 0
-11 -9 -4 0
-14 30 40 0
45 3 24 0
21 -22 33 0
9 20 -45 0
-29 -5 -25 0
-44 21 -7 0
34 24 44 0
19 30 18 0
-39 21 -4 0
-13 -34 -43 0
-33 19 -15 0
19 -30 -14 0
-7 -21 29 0
23 18 26 0
-42 21 -35 0
-6 20 -18 0
-4 12 30 0
14 -33 -41 0
-31 -20 1 0
3 -41 -33 0
-39 10 40 0
-19 -44 -3 0
44 -24 -43 0
-30 -40 33 0
-25 -30 7 0
16 -14 -32 0
-42 21 -13 0
29 32 38 0
-29 24 15 0
-11 47 27 0
1 -4 15 0
12 45 -3 0
-37 33 -23 0
-40 46 28 0
-25 -40 23 0
20 -30 15 0
44 -19 22 0
-1 -13 -26 0
-20 -47 25 0
