c Coffinhead hard-core n=47 seed=67 ratio=4.0
p cnf 47 188
-4 45 -33 0
20 12 -14 0
-39 -30 -37 0
-5 29 2 0
-35 -42 45 0
-41 3 15 0
-30 -44 21 0
10 14 26 0
-29 -42 28 0
-41 37 31 0
-18 12 -11 0
-12 -2 32 0
1 -22 33 0
-9 37 20 0
16 -6 14 0
17 28 3 0
21 -30 6 0
47 17 -15 0
45 -36 -28 0
11 -12 -41 0
18 -5 -41 0
-45 -43 4 0
32 9 -4 0
-3 -10 -20 0
-6 25 42 0
44 41 32 0
10 -37 3 0
-25 43 -20 0
-36 41 -43 0
41 -22 -17 0
-37 -8 6 0
-38 24 25 0
32 -12 -46 0
-16 19 -47 0
-47 -35 7 0
22 -27 44 0
-22 35 26 0
20 15 32 0
-10 24 38 0
38 -11 -47 0
-42 11 19 0
-8 -46 14 0
5 -19 4 0
6 -42 31 0
-8 4 34 0
-24 21 11 0
-10 33 5 0
-44 14 -4 0
20 33 -5 0
40 -19 -25 0
-42 27 -6 0
11 21 -47 0
-19 -12 27 0
43 21 -42 0
-41 5 -40 0
46 -23 44 0
-21 32 -28 0
-6 -44 -23 0
6 -4 -29 0
-14 34 -33 0
35 -1 15 0
47 -40 -24 0
-35 11 -29 0
-43 -39 -35 0
-40 27 -26 0
9 16 -34 0
-43 9 39 0
-10 43 -16 0
31 12 26 0
-16 21 2 0
-32 5 -23 0
-23 -28 -29 0
-29 19 46 0
2 46 -9 0
38 7 12 0
-24 -44 -8 0
32 24 -20 0
-27 -43 21 0
6 -2 -5 0
27 7 -46 0
-33 47 11 0
-6 35 -11 0
-3 5 47 0
34 35 24 0
18 23 36 0
30 -25 10 0
-37 -45 -44 0
-25 -26 -24 0
47 46 34 0
42 -23 -19 0
-7 5 -36 0
-13 11 3 0
35 33 5 0
-24 -9 -7 0
-14 23 -43 0
34 22 -18 0
9 18 -7 0
46 6 34 0
-5 25 -45 0
-44 -5 4 0
6 27 -24 0
3 -5 12 0
-23 -33 -25 0
42 -34 -25 0
1 12 22 0
-39 38 -7 0
-18 -41 6 0
-47 45 13 0
40 30 42 0
43 -41 -4 0
-38 -9 -23 0
-23 -22 -34 0
-27 24 12 0
27 -33 13 0
-32 23 -1 0
43 14 1 0
28 -47 -44 0
-42 17 -1 0
-26 7 -20 0
-12 -11 -16 0
-10 -23 31 0
-12 7 43 0
-4 -22 44 0
-12 -19 34 0
-10 28 -32 0
-26 -18 12 0
-21 3 -22 0
-4 23 3 0
33 23 5 0
1 -45 -40 0
-13 44 14 0
42 33 31 0
-33 10 7 0
24 33 -47 0
2 -45 21 0
-2 14 42 0
31 32 17 0
-30 -1 19 0
31 13 35 0
15 5 24 0
36 -20 -44 0
-22 41 -44 0
-8 -35 -38 0
30 8 -5 0
-15 -34 -17 0
21 -37 -2 0
40 -38 -39 0
31 3 -36 0
-37 41 3 0
7 36 -4 0
-45 7 -33 0
14 -27 -3 0
10 -43 -32 0
8 -39 -42 0
-3 10 4 0
-8 14 45 0
24 3 39 0
-26 -34 -41 0
-29 16 -31 0
29 -12 18 0
-21 -36 -19 0
-44 9 -30 0
16 -32 36 0
-35 -4 -14 0
16 30 14 0
-6 17 -38 0
-45 40 15 0
-17 22 -27 0
16 -28 19 0
-4 -30 13 0
-39 -30 -37 0
-39 9 -22 0
-47 8 -4 0
-43 18 -10 0
27 -31 14 0
21 22 34 0
-37 41 -44 0
-25 41 -45 0
-31 -12 41 0
7 -16 -24 0
-44 -46 -27 0
34 15 -36 0
-6 40 -11 0
18 -21 -38 0
20 2 -35 0
-38 -34 -30 0
24 1 12 0
6 -21 -8 0
