c Coffinhead hard-core n=47 seed=36 ratio=4.0
p cnf 47 188
-43 -23 12 0
36 47 -2 0
-19 36 -16 0
-8 47 -23 0
-9 -25 37 0
-1 24 -40 0
-21 45 33 0
41 8 17 0
1 46 13 0
-47 -32 40 0
-33 -37 21 0
-27 -24 37 0
5 18 28 0
-46 -45 -3 0
34 15 30 0
42 28 30 0
-14 -42 22 0
43 19 27 0
20 -28 45 0
-36 46 -19 0
3 -9 -39 0
-4 -43 45 0
18 25 4 0
6 43 34 0
-44 -16 13 0
18 10 -24 0
-44 47 -33 0
-44 -21 2 0
-31 38 28 0
22 44 -11 0
-22 -41 -6 0
-32 -29 47 0
-32 41 -27 0
-36 -11 -31 0
-18 3 -12 0
-3 31 -37 0
-30 -44 42 0
23 38 -41 0
8 -20 -18 0
-6 1 10 0
-7 15 46 0
-40 -41 -28 0
29 6 1 0
-6 -25 1 0
9 -22 -26 0
46 -19 17 0
44 -24 -9 0
-37 4 11 0
39 -38 -18 0
-23 47 -41 0
43 45 42 0
-7 -46 -15 0
17 -8 21 0
40 -34 -3 0
-25 11 -32 0
-7 17 -16 0
34 10 12 0
32 -16 11 0
-2 -10 -9 0
17 -9 45 0
-16 -28 15 0
-24 23 -4 0
19 -40 -30 0
-26 -47 -42 0
37 22 -7 0
11 -41 -42 0
31 -15 -30 0
-30 3 -2 0
32 33 -35 0
14 34 17 0
18 -1 39 0
9 -2 25 0
-10 -2 28 0
28 35 -7 0
-10 -44 13 0
-15 17 -44 0
16 -22 -34 0
-46 -20 -23 0
38 22 44 0
-33 16 -8 0
-39 -47 29 0
44 38 27 0
-32 7 -11 0
-43 38 36 0
2 30 31 0
-44 -31 -30 0
20 -15 33 0
12 42 -31 0
-11 39 -23 0
42 -35 -41 0
-18 -29 33 0
-4 6 -28 0
-21 -18 34 0
14 30 25 0
-35 -32 41 0
-4 21 20 0
30 38 -28 0
31 38 -3 0
-21 19 41 0
47 -15 12 0
42 -41 -32 0
12 -33 -18 0
3 -14 30 0
-28 7 38 0
-1 14 23 0
9 1 -3 0
-8 17 -42 0
-1 -39 23 0
-30 -36 5 0
-34 -17 39 0
-4 -1 -43 0
-3 -7 -43 0
22 -41 2 0
12 22 2 0
26 -24 15 0
32 18 -36 0
5 -13 42 0
42 -25 11 0
1 -11 40 0
3 25 13 0
16 45 -24 0
10 -47 1 0
30 41 7 0
-14 -46 -38 0
16 35 19 0
22 -30 32 0
5 31 -38 0
42 27 -22 0
-28 -4 -5 0
-1 27 -37 0
-41 -29 -47 0
47 -42 6 0
42 1 39 0
25 -20 9 0
13 -32 46 0
-11 -6 -23 0
-31 24 18 0
-6 -42 40 0
-12 -31 -29 0
-6 45 -37 0
13 -5 -29 0
-19 -8 -33 0
40 -46 -9 0
18 -9 -32 0
7 10 37 0
-47 -11 -13 0
42 -33 -12 0
43 12 40 0
-5 33 -7 0
40 -47 22 0
-32 25 -30 0
44 -27 46 0
8 43 -5 0
-30 -17 35 0
20 -15 -37 0
34 -15 29 0
23 34 -43 0
10 26 -36 0
-27 1 -38 0
-34 25 -21 0
-3 27 -7 0
42 29 37 0
-39 -34 13 0
-23 -18 37 0
17 1 -47 0
29 -28 41 0
18 23 -39 0
-42 -44 -36 0
-27 33 39 0
-31 -16 38 0
17 -29 23 0
31 -40 37 0
-40 -19 42 0
11 16 -6 0
22 -36 18 0
40 -21 38 0
-41 31 22 0
22 46 32 0
12 -23 -43 0
-14 -6 -29 0
8 -18 -15 0
34 44 -43 0
-22 46 32 0
28 -6 -26 0
16 -43 23 0
-22 35 17 0
16 -14 -5 0
45 24 -12 0
