c Coffinhead hard-core n=47 seed=21 ratio=4.0
p cnf 47 188
24 -6 19 0
-33 -6 -35 0
-16 6 -21 0
35 40 2 0
-11 44 -5 0
25 3 30 0
17 32 25 0
24 -36 -19 0
30 39 35 0
-35 -1 -47 0
24 -26 37 0
44 -7 27 0
-17 -7 -40 0
15 -46 27 0
-36 1 41 0
44 11 -43 0
-43 38 7 0
-25 36 -37 0
-34 -2 10 0
-36 33 -8 0
24 -42 -21 0
15 -19 -28 0
-9 4 41 0
2 32 -40 0
22 23 3 0
34 7 22 0
-2 3 31 0
12 11 46 0
6 -46 18 0
47 42 -21 0
-20 41 -45 0
-26 27 1 0
20 -35 -29 0
-39 -1 47 0
-46 -27 -9 0
-36 41 46 0
31 32 -8 0
24 -6 -10 0
36 -41 26 0
4 29 -15 0
6 13 14 0
41 -22 -19 0
-47 21 -8 0
-35 -10 -44 0
-10 42 14 0
-40 -28 -41 0
-37 -17 45 0
3 15 -6 0
5 43 8 0
-34 -10 43 0
-40 -18 44 0
-37 19 -5 0
16 26 -8 0
46 -13 8 0
13 -37 23 0
-46 -7 -38 0
15 -5 -12 0
39 37 4 0
7 -2 -19 0
7 -40 26 0
22 -31 20 0
30 -43 10 0
45 -7 -20 0
34 24 -32 0
43 42 -16 0
11 -12 32 0
39 11 -3 0
-26 14 13 0
26 -10 33 0
-8 -30 -7 0
45 -37 -28 0
29 25 -28 0
-22 7 -24 0
-19 -47 26 0
-32 -6 -1 0
-36 -27 9 0
-41 -17 3 0
-30 -47 16 0
-45 15 -4 0
-19 13 -46 0
18 20 -2 0
-9 19 -30 0
-35 28 -14 0
-43 15 -46 0
40 27 -36 0
-21 3 1 0
-41 -46 -30 0
-4 39 -15 0
-24 -47 -35 0
28 33 24 0
-3 -27 -26 0
47 28 16 0
22 1 35 0
32 -25 -13 0
-42 18 1 0
42 28 22 0
-29 21 -40 0
13 -25 -33 0
21 -36 33 0
-39 35 -13 0
-33 9 -30 0
-42 -7 -1 0
-21 4 -28 0
-37 -13 19 0
3 19 9 0
-36 -4 17 0
-23 14 -4 0
-46 17 -27 0
-11 26 -34 0
-13 -42 -43 0
43 -40 11 0
-38 -40 -45 0
-43 45 -44 0
20 11 38 0
-17 1 -24 0
5 -18 25 0
-21 42 -4 0
34 43 28 0
14 -28 -16 0
-15 -46 38 0
-47 -27 -4 0
19 8 -45 0
35 43 42 0
-13 20 25 0
47 23 5 0
-42 6 -23 0
-35 42 39 0
-29 -26 25 0
4 27 14 0
-30 33 -43 0
-3 31 18 0
14 9 -1 0
-33 18 -28 0
42 3 -9 0
11 5 -17 0
30 41 14 0
42 -19 -45 0
38 12 -42 0
24 -46 2 0
-16 34 21 0
19 -28 -6 0
-27 -13 -16 0
-47 -41 -28 0
42 17 -6 0
40 -42 10 0
3 -8 -32 0
30 9 -36 0
21 -26 -44 0
-31 20 -1 0
-44 -37 10 0
8 43 45 0
-14 46 -1 0
-25 -14 24 0
-30 12 -2 0
15 -43 16 0
5 -34 39 0
40 7 -41 0
20 -37 -42 0
-34 -42 7 0
-42 -4 2 0
-23 -45 -26 0
-4 23 -12 0
-18 -37 -22 0
-40 -41 10 0
-27 29 -7 0
-26 1 -30 0
-11 3 38 0
32 1 -5 0
-28 37 39 0
27 -13 30 0
29 -44 -32 0
-11 21 27 0
-24 25 -4 0
-26 -34 -9 0
-17 -41 4 0
34 -44 -39 0
19 2 -15 0
34 -29 42 0
29 36 14 0
-40 -26 21 0
-12 19 1 0
-5 31 -44 0
-5 36 15 0
27 7 -46 0
-20 -31 -25 0
-6 -25 8 0
4 -15 -18 0
-14 37 -44 0
