c Coffinhead hard-core n=47 seed=37 ratio=4.0
p cnf 47 188
5 19 6 0
-8 -22 -3 0
26 -36 -45 0
-28 -2 -33 0
-26 36 -17 0
34 -27 -29 0
-34 25 -15 0
22 20 25 0
30 46 -47 0
-30 38 -10 0
22 -39 32 0
-45 4 -39 0
-27 44 -37 0
-34 -12 47 0
10 13 -6 0
-16 11 33 0
17 -6 -9 0
29 -15 -37 0
-47 38 -37 0
22 -37 -28 0
16 -4 3 0
14 3 -6 0
-11 33 1 0
9 32 -33 0
-21 -41 -47 0
46 29 23 0
-32 -31 13 0
39 -32 14 0
-7 -16 -24 0
-39 -36 -29 0
-16 -47 9 0
34 -42 -27 0
-22 -41 -9 0
25 32 11 0
24 3 -13 0
30 20 -31 0
44 -33 -35 0
22 46 -30 0
-3 -34 -25 0
14 -7 42 0
-29 44 32 0
-7 26 6 0
-1 16 4 0
4 -17 -41 0
-5 7 -33 0
25 -10 11 0
-30 27 -29 0
31 35 4 0
43 35 -40 0
27 -7 -13 0
1 28 39 0
2 -39 -18 0
7 25 -12 0
-31 13 37 0
-36 19 12 0
30 -29 -44 0
-8 -3 -38 0
43 -1 -33 0
46 4 -24 0
-39 1 -33 0
5 10 6 0
-7 10 33 0
1 -3 -9 0
-37 31 36 0
7 23 -28 0
-11 -33 -22 0
-3 -9 -42 0
-35 -30 -43 0
-13 11 19 0
-44 16 -13 0
-16 22 -6 0
-36 34 27 0
-42 -45 -37 0
8 -17 11 0
-16 -1 20 0
-10 -27 -25 0
8 32 -38 0
4 -26 3 0
31 18 19 0
17 -22 18 0
11 36 -31 0
-40 -7 1 0
33 34 21 0
-16 31 2 0
30 -6 9 0
28 26 -40 0
12 18 -33 0
-3 26 -20 0
27 43 -3 0
-3 -29 -45 0
44 43 -46 0
-4 45 -13 0
-11 45 -41 0
43 -20 -47 0
-41 25 24 0
-30 -19 -27 0
25 -30 -29 0
12 -41 -39 0
21 -25 -24 0
-16 29 -8 0
25 -47 41 0
46 -3 -30 0
31 -39 37 0
-25 27 6 0
35 -41 26 0
-25 -5 3 0
47 -39 12 0
-39 23 -25 0
25 -27 -34 0
41 -25 -19 0
-43 12 -47 0
27 -30 -8 0
-42 47 -32 0
1 -39 -9 0
30 24 -28 0
37 -5 31 0
-15 -36 4 0
38 47 31 0
-33 43 42 0
25 44 24 0
17 -27 3 0
-13 38 -25 0
20 27 37 0
-22 -12 -14 0
42 44 33 0
26 17 32 0
22 21 -12 0
23 -22 6 0
10 -12 27 0
31 -46 1 0
17 -39 34 0
33 17 -22 0
20 39 2 0
-9 -12 -39 0
41 -9 12 0
42 17 -4 0
-16 6 47 0
24 -28 -39 0
-2 42 9 0
2 -21 -28 0
33 41 -7 0
-18 -35 39 0
47 -4 31 0
34 2 4 0
17 -11 -6 0
20 34 -43 0
10 -40 -27 0
-10 2 -34 0
-29 -45 4 0
22 32 -38 0
-3 39 -28 0
2 1 14 0
-16 37 14 0
33 22 -15 0
19 -21 33 0
46 21 31 0
9 36 6 0
-37 -35 40 0
-33 31 -8 0
-42 -25 46 0
-20 -18 -40 0
15 -22 40 0
14 -10 -4 0
-28 46 10 0
41 -22 29 0
-47 -36 38 0
-26 28 34 0
-23 -19 26 0
34 -30 -10 0
44 -1 -21 0
-36 -18 1 0
-19 27 15 0
-28 21 4 0
-1 -7 46 0
-41 2 9 0
-41 -22 -9 0
-25 -2 27 0
-46 -45 -37 0
-11 45 38 0
3 -32 5 0
-13 -2 15 0
44 -5 22 0
-15 43 11 0
-28 -6 -45 0
-21 32 46 0
-31 -15 -7 0
-6 15 28 0
-17 -28 47 0
