c Coffinhead hard-core n=47 seed=32 ratio=4.0
p cnf 47 188
-7 -21 35 0
-42 -16 -46 0
26 4 7 0
45 44 -3 0
-11 -32 -10 0
-31 28 -29 0
11 18 39 0
-42 -23 34 0
-42 -43 -12 0
15 24 -19 0
24 -40 -45 0
-2 -25 21 0
-38 40 -34 0
-26 46 -15 0
44 -11 21 0
44 22 40 0
31 -1 -33 0
-39 -38 -35 0
-29 10 45 0
40 -38 18 0
37 6 27 0
-16 -47 -25 0
-20 -21 -26 0
44 -14 32 0
-33 -39 36 0
21 -38 -29 0
-19 45 28 0
-41 -43 15 0
9 -40 -17 0
9 25 -13 0
43 7 -21 0
42 -24 14 0
30 -22 34 0
-21 41 46 0
-37 4 -33 0
-16 -17 1 0
-14 31 -16 0
37 30 40 0
-22 -24 -39 0
9 -17 -35 0
-34 43 5 0
6 -41 -7 0
45 -28 -4 0
-47 -8 -41 0
20 -40 21 0
23 47 -4 0
-13 14 15 0
-25 34 45 0
-30 22 19 0
-5 37 -43 0
-9 -15 -43 0
-1 -44 37 0
-13 -38 18 0
-25 -16 8 0
-7 21 10 0
14 -42 -39 0
20 -6 -21 0
19 -36 31 0
-43 6 -32 0
-44 -36 -30 0
11 43 26 0
-15 -26 40 0
-3 17 16 0
25 27 9 0
-24 -19 -28 0
19 17 33 0
8 -24 35 0
25 34 -39 0
22 41 -40 0
-24 3 42 0
37 -32 30 0
1 47 17 0
45 39 33 0
-45 30 -12 0
-5 33 -30 0
29 42 -25 0
20 36 -27 0
-34 -28 -30 0
-6 -16 26 0
-7 -27 -33 0
10 8 -42 0
-25 -29 -7 0
4 -40 -46 0
-3 12 -9 0
-35 9 -24 0
32 34 -41 0
36 -35 4 0
-17 -18 32 0
29 14 35 0
-25 -11 -1 0
25 19 -43 0
39 -29 -4 0
3 35 -25 0
-39 9 23 0
-33 45 -32 0
-12 -33 -40 0
31 -30 2 0
21 -3 18 0
-14 -4 -13 0
-23 36 -44 0
-40 -22 26 0
-1 17 -46 0
19 -18 -7 0
-22 -6 -27 0
7 2 -17 0
23 13 -31 0
-22 -17 -34 0
-41 -46 -19 0
-21 -4 43 0
-19 -25 -6 0
46 -16 25 0
8 -17 33 0
40 21 -27 0
30 24 16 0
16 -3 -6 0
-11 8 -29 0
11 15 41 0
32 14 -6 0
-12 23 -41 0
-22 -16 14 0
-21 -4 -10 0
-46 -3 -43 0
47 -19 -9 0
-14 34 -46 0
31 -13 16 0
-9 6 -18 0
22 11 -28 0
24 41 -29 0
46 17 2 0
-35 13 -47 0
42 -4 23 0
-14 39 20 0
-43 31 29 0
-27 11 -32 0
-25 -37 36 0
2 35 18 0
-18 20 -46 0
-42 35 16 0
13 -6 42 0
-46 -42 45 0
43 -21 -33 0
-16 14 38 0
14 -9 -19 0
41 31 -28 0
27 21 -47 0
-45 17 42 0
-12 -29 9 0
38 1 -5 0
-4 11 2 0
-32 6 -1 0
35 23 26 0
31 1 -12 0
38 43 -11 0
-9 -30 25 0
45 -16 -9 0
21 -9 -35 0
45 25 9 0
24 -10 17 0
17 40 11 0
20 -25 14 0
-8 36 -10 0
-4 43 46 0
42 19 30 0
47 34 29 0
35 -4 10 0
-16 -21 -14 0
-10 -21 -35 0
41 2 39 0
-2 -24 -3 0
3 -44 -9 0
44 31 36 0
-2 46 -41 0
-6 39 42 0
-1 3 -2 0
-19 -39 6 0
18 -36 -23 0
19 37 -22 0
-1 44 -30 0
-5 14 27 0
-36 -24 14 0
-27 39 16 0
35 -5 6 0
14 3 -7 0
12 23 -33 0
-16 1 43 0
46 -38 21 0
-7 -34 17 0
12 -44 45 0
