c Coffinhead hard-core n=47 seed=31 ratio=4.0
p cnf 47 188
-20 -28 35 0
-33 36 -45 0
-18 4 -22 0
-43 -10 32 0
45 36 -30 0
-39 -12 17 0
-16 5 32 0
40 42 43 0
-22 37 29 0
-17 16 -39 0
-42 -25 26 0
-2 -16 22 0
21 -20 45 0
-27 15 42 0
-47 -15 18 0
-44 -6 27 0
13 -26 36 0
9 -22 10 0
40 -32 39 0
-46 -34 -9 0
32 -19 -35 0
10 -13 -2 0
-39 20 19 0
37 -3 -44 0
19 35 44 0
3 -34 -37 0
-10 5 39 0
-14 4 -12 0
-37 45 -8 0
-46 -21 9 0
11 37 -22 0
17 45 -11 0
-15 -38 4 0
-33 -1 -43 0
-4 8 40 0
18 31 2 0
28 25 -47 0
3 -44 -7 0
43 -2 15 0
13 -38 -7 0
-11 -15 -45 0
-11 -46 -28 0
-47 19 15 0
-26 -47 -19 0
5 -13 6 0
-23 -20 13 0
44 12 16 0
32 -18 -31 0
22 10 42 0
2 31 10 0
10 39 43 0
47 44 19 0
6 15 23 0
46 -35 24 0
25 14 16 0
-26 -36 -40 0
-7 35 -42 0
-8 43 -7 0
-4 -25 -2 0
20 -36 -22 0
17 -46 -40 0
-7 -22 -13 0
3 43 -10 0
36 44 -42 0
9 -29 26 0
2 1 -9 0
18 -43 -8 0
-3 41 -40 0
-19 42 46 0
34 -30 -41 0
-4 21 28 0
8 41 -25 0
12 31 -17 0
-11 -12 -29 0
30 -24 37 0
-11 10 20 0
28 3 40 0
5 17 -33 0
19 25 27 0
16 -23 33 0
31 -22 -4 0
44 38 -18 0
14 -7 -34 0
-44 38 20 0
24 6 -34 0
1 -26 24 0
-1 32 26 0
37 -11 45 0
24 6 -22 0
33 -11 34 0
-45 35 16 0
36 31 -30 0
7 -27 -18 0
11 -44 5 0
46 -26 23 0
-35 -43 22 0
-45 9 12 0
-6 34 -26 0
32 35 -30 0
29 45 -1 0
12 -33 19 0
-35 6 5 0
17 -10 -13 0
37 26 -43 0
17 -13 -33 0
-6 -42 15 0
4 -22 25 0
-28 6 -4 0
-36 -20 34 0
-36 22 29 0
27 16 35 0
22 -39 27 0
1 -20 -25 0
-31 -40 -32 0
-4 -12 -5 0
-44 -5 -28 0
-25 42 -15 0
41 -25 5 0
13 -7 -1 0
-39 -15 -21 0
2 17 3 0
-37 26 40 0
-28 14 -34 0
25 -40 -26 0
25 -2 -12 0
-19 -15 -41 0
-20 37 -33 0
13 -25 34 0
-9 37 -38 0
37 1 -8 0
19 24 -43 0
-31 1 9 0
1 11 22 0
44 31 11 0
16 -2 -46 0
39 18 25 0
35 26 3 0
-40 -2 38 0
-3 -18 40 0
-16 14 39 0
-28 -22 -2 0
10 -30 -9 0
28 -29 37 0
-11 -15 40 0
3 -16 25 0
-16 34 -11 0
-31 22 42 0
-38 36 -25 0
27 -36 -5 0
-37 -21 19 0
-32 17 -13 0
-43 -26 21 0
40 -42 23 0
-25 28 -43 0
42 33 20 0
-32 25 44 0
-26 27 47 0
-4 -37 7 0
-12 -44 -25 0
38 34 23 0
35 -44 2 0
36 -25 -4 0
21 30 -27 0
8 -33 5 0
33 -10 46 0
32 -18 -13 0
-6 43 -33 0
-6 -1 -12 0
-6 -3 -30 0
12 -45 -10 0
33 -47 13 0
-45 11 27 0
-14 -38 12 0
20 -16 35 0
-17 -29 -42 0
32 9 -34 0
42 -13 20 0
3 -32 -35 0
27 -4 -7 0
10 -18 21 0
24 -12 -29 0
-40 -23 22 0
46 26 -3 0
42 -23 1 0
16 14 -34 0
7 40 6 0
-41 44 -40 0
32 44 21 0
