c Coffinhead hard-core n=47 seed=24 ratio=4.0
p cnf 47 188
-29 6 -27 0
-40 -10 -18 0
1 47 -16 0
7 -39 5 0
22 -4 -29 0
1 10 47 0
16 22 -10 0
-22 3 32 0
-31 -2 -17 0
-36 32 -4 0
25 47 19 0
-40 16 -5 0
1 -9 -38 0
-18 4 -13 0
-28 -9 5 0
-25 -36 46 0
23 35 -18 0
17 20 40 0
-35 2 -8 0
-16 -29 -21 0
33 3 -26 0
-25 -28 10 0
7 26 -27 0
40 -25 22 0
28 20 9 0
14 4 18 0
-32 -33 12 0
28 -3 -46 0
44 16 -46 0
-16 38 -45 0
-8 30 -12 0
-9 38 -15 0
45 -3 -27 0
-3 21 36 0
2 14 -39 0
20 -29 5 0
-19 45 -26 0
11 -12 -4 0
-12 41 -33 0
-44 -32 -39 0
-30 24 8 0
13 12 25 0
38 3 25 0
-37 4 -14 0
-24 44 40 0
-38 -44 -19 0
-46 -5 35 0
-13 2 -7 0
31 -25 -42 0
-15 40 12 0
-45 -20 -15 0
21 -47 -5 0
-10 -1 26 0
-19 -39 -17 0
-41 10 13 0
12 -28 -14 0
18 28 -13 0
10 -2 28 0
21 29 11 0
25 -11 -32 0
10 34 -35 0
-21 43 -16 0
43 -29 45 0
18 -42 -26 0
-17 32 13 0
-38 -7 1 0
-7 -43 -3 0
-4 19 16 0
-42 -39 -36 0
18 45 35 0
4 -32 -9 0
-39 -41 17 0
-4 -11 29 0
-35 16 36 0
21 -30 13 0
37 -45 -6 0
1 11 39 0
-21 -15 -1 0
-4 -35 -31 0
10 6 8 0
-33 -15 42 0
-18 -1 25 0
-33 -37 -43 0
-31 45 3 0
-27 47 16 0
26 -30 3 0
-32 39 -38 0
9 45 -43 0
43 14 16 0
35 12 -11 0
-37 -46 -34 0
6 13 23 0
5 -47 -26 0
3 -38 45 0
12 6 -9 0
30 12 39 0
-32 -46 9 0
45 39 19 0
5 6 3 0
5 -29 34 0
1 -43 -25 0
-6 -15 39 0
31 9 42 0
18 -29 -25 0
-24 34 18 0
-36 22 -2 0
22 34 -5 0
-15 -2 10 0
-25 46 -18 0
-34 -35 10 0
37 1 47 0
-1 -5 28 0
-26 29 32 0
16 -30 -32 0
10 41 -28 0
-33 23 -44 0
-38 39 13 0
25 -42 8 0
47 43 15 0
21 4 -31 0
-21 18 4 0
12 -45 46 0
18 39 -22 0
16 -36 5 0
-20 24 1 0
-16 -40 -4 0
23 -3 43 0
-7 -33 46 0
10 2 -41 0
-36 -46 -39 0
-25 33 37 0
5 45 22 0
-36 8 39 0
26 14 35 0
12 31 47 0
-47 -13 16 0
-28 -1 24 0
29 -42 11 0
-22 23 -46 0
-8 -2 -28 0
16 23 46 0
46 -25 28 0
39 20 27 0
-7 10 23 0
39 38 33 0
-12 31 22 0
-15 -16 -17 0
-15 24 -13 0
46 -23 -44 0
44 34 -21 0
-41 -34 2 0
9 29 14 0
-47 29 22 0
-26 24 -4 0
-26 -18 -16 0
16 -27 -15 0
11 31 -30 0
27 -3 7 0
44 -46 12 0
8 2 42 0
20 -7 -12 0
41 23 -32 0
14 45 11 0
-11 -38 2 0
29 -9 -35 0
19 34 27 0
-3 -6 -38 0
8 21 3 0
-45 3 12 0
29 -25 -33 0
22 34 -29 0
10 17 -5 0
22 32 -30 0
-37 -41 12 0
39 -32 -26 0
-29 16 -23 0
11 40 36 0
23 14 12 0
24 40 -19 0
-17 47 -41 0
-44 -15 11 0
-47 35 23 0
-1 46 -18 0
-41 -26 42 0
-10 3 32 0
-45 43 22 0
4 -38 -12 0
13 -31 12 0
