c Coffinhead hard-core n=47 seed=33 ratio=4.0
p cnf 47 188
16 11 -12 0
20 -7 24 0
-30 -25 -36 0
36 -33 40 0
-24 18 -25 0
-24 18 32 0
20 -18 -32 0
-4 -14 18 0
-33 -14 45 0
-18 -30 -16 0
3 19 -29 0
19 -17 21 0
21 -17 -23 0
38 17 25 0
-47 -1 39 0
22 -13 15 0
-6 -11 46 0
28 10 -26 0
-42 -1 -17 0
46 47 -11 0
-7 9 47 0
40 21 -7 0
41 29 -43 0
-17 6 -11 0
22 -41 2 0
-31 -35 39 0
-27 41 10 0
43 17 -31 0
29 40 41 0
5 -40 -45 0
-35 -25 -6 0
-14 15 27 0
32 29 39 0
14 -34 -4 0
8 -24 13 0
21 16 -46 0
20 -43 -5 0
34 27 41 0
4 17 47 0
4 -8 -35 0
9 39 33 0
28 -25 2 0
43 26 -45 0
-2 -46 -47 0
-6 -28 -10 0
30 20 25 0
-41 5 1 0
18 -37 -24 0
45 -28 -21 0
-12 10 16 0
-41 25 7 0
28 26 -21 0
4 -1 35 0
-19 7 26 0
19 33 -37 0
-40 47 -13 0
39 8 37 0
-47 -45 7 0
-10 -8 36 0
-33 3 45 0
-2 -3 -38 0
-22 -3 18 0
38 37 -15 0
46 44 -11 0
31 33 -21 0
-4 14 -23 0
9 -3 -17 0
41 10 -28 0
-46 13 -38 0
-35 10 3 0
26 -6 -19 0
1 -44 29 0
-44 26 27 0
-23 -3 -40 0
-34 -5 -17 0
-32 10 41 0
-46 23 -31 0
-25 33 7 0
-12 -31 1 0
38 25 28 0
-2 -15 -35 0
36 -1 7 0
13 -36 30 0
-25 -39 -47 0
31 -7 -23 0
10 -25 -33 0
26 44 -38 0
6 28 -18 0
-32 -13 6 0
-16 36 25 0
-47 24 13 0
6 7 -27 0
10 26 27 0
-11 31 42 0
34 19 46 0
-36 -20 28 0
9 -42 13 0
-47 -7 9 0
21 -19 46 0
-38 -45 -29 0
-27 -45 17 0
-38 22 18 0
5 9 17 0
33 28 41 0
31 -18 32 0
-1 11 -47 0
19 -27 -37 0
-16 17 -26 0
-27 3 -20 0
-31 -38 -15 0
34 35 -3 0
40 -34 5 0
-30 -29 -12 0
24 45 -37 0
35 13 -26 0
13 10 -9 0
13 8 -29 0
46 -27 40 0
-23 -17 -5 0
46 6 -47 0
44 42 30 0
-42 11 36 0
-31 -33 46 0
24 -40 26 0
-2 32 -24 0
44 26 27 0
3 -30 10 0
12 7 -23 0
-37 2 31 0
-28 14 -6 0
22 46 41 0
21 -25 35 0
15 37 25 0
-37 29 -8 0
-4 -41 -29 0
29 35 34 0
33 37 -15 0
4 26 22 0
26 -45 9 0
-43 -19 37 0
-42 32 -37 0
42 29 -22 0
-40 29 19 0
-27 13 -40 0
28 6 38 0
-29 -47 17 0
25 13 30 0
-21 -42 -34 0
39 -4 -30 0
-43 1 20 0
-47 -29 23 0
-11 9 -12 0
19 -21 33 0
-25 -34 -2 0
-40 -12 13 0
-41 13 16 0
9 -39 30 0
-31 7 -1 0
-4 18 -20 0
-16 36 5 0
45 11 24 0
-6 -44 27 0
-23 6 34 0
-12 9 5 0
28 1 -16 0
37 -20 16 0
-37 -10 -29 0
-31 40 39 0
27 4 -12 0
34 -30 -47 0
-44 -9 -36 0
-36 -26 -27 0
-21 -15 39 0
33 2 46 0
2 -42 6 0
-30 26 9 0
-15 46 29 0
40 30 -17 0
-12 32 -21 0
42 9 -47 0
-45 6 -29 0
36 -10 -25 0
-26 -37 -40 0
-2 22 -47 0
46 -17 -40 0
-5 -6 47 0
-29 39 36 0
45 43 -26 0
