c Coffinhead hard-core n=47 seed=11 ratio=4.0
p cnf 47 188
-6 21 30 0
17 9 38 0
6 33 8 0
32 -38 16 0
41 23 -16 0
24 22 37 0
35 17 7 0
20 16 4 0
-6 -10 5 0
28 22 -43 0
32 -22 -25 0
18 -7 15 0
41 43 3 0
-28 6 -24 0
-32 20 2 0
-26 17 33 0
-11 41 -38 0
35 -41 30 0
19 -33 -2 0
33 18 -36 0
-7 4 -8 0
10 8 -28 0
-13 27 9 0
15 3 -11 0
24 -5 -8 0
-40 13 8 0
42 34 -45 0
-6 11 17 0
-46 13 44 0
-7 21 27 0
33 -32 -6 0
-12 -10 -43 0
16 1 21 0
-36 35 15 0
-22 -1 -5 0
-9 -16 -28 0
-40 32 -15 0
-34 43 -18 0
-12 -33 42 0
43 27 34 0
4 35 16 0
-32 -38 -27 0
10 16 24 0
-28 12 26 0
20 -3 -4 0
23 44 34 0
-34 18 24 0
-30 7 5 0
7 -24 33 0
9 19 -5 0
-2 -35 -27 0
-42 -33 21 0
-22 19 -5 0
-42 -39 38 0
-23 -12 2 0
-38 -47 -9 0
45 6 -20 0
-9 16 32 0
26 6 -32 0
-1 -39 -42 0
3 -14 -20 0
-41 -6 17 0
27 -29 -35 0
44 40 43 0
40 23 -27 0
-21 32 14 0
40 35 5 0
14 -31 -4 0
39 10 8 0
16 -39 40 0
21 12 25 0
10 -30 -29 0
31 -46 -34 0
-8 -23 24 0
17 -34 7 0
-43 2 -40 0
31 -38 -18 0
-21 -45 -12 0
20 -1 33 0
31 5 -14 0
-35 -13 -19 0
27 -26 30 0
-14 -15 -20 0
-18 20 -29 0
-32 -47 20 0
-12 35 42 0
37 44 -35 0
33 -39 29 0
2 41 -33 0
26 -5 46 0
-21 -37 33 0
38 -10 -7 0
-5 16 44 0
28 47 -1 0
-40 -2 39 0
-34 -11 47 0
22 -33 26 0
37 11 -20 0
6 21 9 0
-25 -13 40 0
5 -31 -23 0
-17 37 47 0
-32 34 38 0
9 30 42 0
-31 33 -6 0
-47 -23 -2 0
-42 -11 32 0
8 -44 -35 0
-19 24 32 0
-23 31 20 0
4 -29 2 0
-14 3 -25 0
44 -14 -39 0
-33 -9 13 0
2 -30 -43 0
-15 44 -3 0
14 -47 -23 0
12 25 -7 0
11 29 -10 0
-26 38 -21 0
-29 -15 -6 0
-45 14 -27 0
-45 39 36 0
-33 -47 -3 0
-33 -36 19 0
23 -2 -30 0
7 13 11 0
38 12 -8 0
45 -36 41 0
21 -2 -38 0
35 -32 16 0
-43 -14 -23 0
36 -46 47 0
42 -34 -46 0
1 -33 43 0
29 19 -23 0
-30 -17 3 0
26 -25 43 0
47 12 2 0
30 -33 -37 0
-19 -8 -24 0
-17 10 -12 0
21 41 -27 0
-25 -13 17 0
-42 -32 20 0
16 -40 -31 0
12 19 -24 0
-27 37 -33 0
5 -36 -31 0
-44 -21 40 0
3 14 -38 0
-28 -36 10 0
-7 15 5 0
12 37 43 0
-18 47 39 0
17 -1 -22 0
17 47 18 0
47 15 31 0
-47 -42 -5 0
13 -29 -44 0
-33 40 43 0
2 18 -9 0
-25 36 39 0
18 -7 28 0
-30 -24 -19 0
12 -33 2 0
12 -5 23 0
26 -42 28 0
45 -21 -13 0
3 42 44 0
-26 38 46 0
-5 -42 35 0
-7 36 27 0
4 -23 34 0
-39 33 -42 0
7 -21 -23 0
-30 8 -41 0
-23 26 -25 0
5 31 35 0
-27 -18 -10 0
-4 43 11 0
-37 -30 -29 0
44 27 -17 0
2 35 -39 0
1 -6 -36 0
21 6 19 0
23 25 -39 0
-34 24 -46 0
