c Coffinhead hard-core n=47 seed=13 ratio=4.0
p cnf 47 188
24 21 26 0
-4 -44 -35 0
34 -37 -40 0
-24 35 -17 0
21 22 -29 0
-26 42 -8 0
35 -21 31 0
16 -26 25 0
-6 38 3 0
-2 11 -31 0
-34 37 -30 0
3 -11 37 0
35 -4 42 0
-27 37 -11 0
25 -32 38 0
32 43 16 0
38 17 -39 0
7 2 -25 0
-36 20 -37 0
46 -34 28 0
-18 -46 -31 0
-28 -43 -22 0
38 14 2 0
-12 29 -3 0
35 -29 -26 0
-44 -23 34 0
34 33 1 0
41 -16 -26 0
31 33 29 0
-4 -23 30 0
-2 21 -46 0
14 -5 -40 0
46 -22 42 0
-16 37 -28 0
22 -19 -32 0
-38 4 1 0
-13 -38 40 0
23 14 -9 0
-47 -43 12 0
11 -46 -29 0
-6 -2 -42 0
28 4 -24 0
-39 44 9 0
32 17 -21 0
-46 -47 2 0
-36 -29 11 0
-3 -17 -37 0
-24 1 -40 0
1 10 43 0
25 -4 12 0
-41 3 -17 0
39 40 -19 0
29 -38 -8 0
-39 13 21 0
-22 3 10 0
-30 5 35 0
-1 -20 -32 0
-35 -19 25 0
-38 8 -46 0
-27 -19 43 0
13 47 2 0
-44 10 34 0
13 -11 3 0
24 10 33 0
47 5 -9 0
42 -41 -34 0
-12 28 18 0
46 29 41 0
43 6 17 0
4 -1 38 0
9 -4 5 0
-47 -1 -8 0
17 1 19 0
-18 5 33 0
8 -45 -38 0
44 -12 -17 0
27 26 -44 0
-10 -6 34 0
-36 21 -20 0
-39 40 -15 0
24 47 26 0
6 37 40 0
-3 21 -39 0
37 -45 -6 0
23 22 7 0
-24 36 -37 0
-23 -34 -45 0
-28 10 31 0
1 19 2 0
38 23 -9 0
43 32 -30 0
-20 -25 17 0
-1 -36 -22 0
10 -6 8 0
-18 10 -3 0
-37 -31 -22 0
9 47 -21 0
-23 -36 -46 0
-15 -35 -29 0
-29 -20 -30 0
-17 -21 -13 0
-5 19 -39 0
21 35 34 0
-36 14 -29 0
-7 -13 -14 0
-18 21 -36 0
-41 45 -40 0
-30 4 -9 0
45 6 9 0
-21 6 -2 0
-40 -34 21 0
-4 -38 31 0
40 20 -30 0
-35 -37 23 0
37 45 35 0
23 -30 12 0
24 -12 44 0
-45 -18 35 0
-11 25 -23 0
47 31 16 0
-30 7 23 0
-24 31 -41 0
-32 15 -42 0
-45 42 -5 0
-23 24 -21 0
-45 29 22 0
47 23 -24 0
11 -22 12 0
-28 -10 1 0
-37 21 9 0
-6 5 39 0
-43 -1 29 0
6 -8 -33 0
-37 -44 -19 0
15 47 20 0
-34 20 -39 0
-45 -36 -41 0
8 -13 45 0
-42 6 26 0
33 -9 4 0
-5 -11 -36 0
47 34 -3 0
-22 -11 -2 0
-36 -39 -32 0
-43 47 -42 0
36 3 -2 0
-18 -10 5 0
-45 37 31 0
11 -16 -44 0
-5 -43 14 0
26 32 46 0
-5 -15 39 0
-3 45 -30 0
-26 29 -9 0
-36 -17 31 0
9 39 34 0
8 -19 -3 0
-29 -40 -17 0
-32 23 -21 0
-23 46 21 0
-25 31 -17 0
-11 33 -27 0
-43 15 -44 0
-1 30 16 0
-26 -30 -1 0
12 -33 -7 0
-2 8 -32 0
-22 7 -14 0
37 9 -13 0
15 -42 30 0
8 4 24 0
-25 18 10 0
20 -45 -9 0
-7 -40 -11 0
19 18 33 0
-13 -33 5 0
2 -19 -28 0
-31 -15 5 0
-35 -24 39 0
1 33 -3 0
2 -46 -30 0
44 -31 -20 0
30 41 10 0
39 -6 -1 0
10 16 -12 0
8 35 -40 0
39 -2 26 0
-36 -13 -11 0
