c Coffinhead hard-core n=47 seed=71 ratio=4.0
p cnf 47 188
-34 22 4 0
-24 32 21 0
26 -8 -42 0
7 22 -9 0
-6 -10 17 0
19 -14 -30 0
15 41 -45 0
-22 13 -28 0
6 2 -31 0
37 4 29 0
14 -46 -37 0
-29 -37 4 0
-30 -17 -8 0
-7 24 -12 0
-19 28 -24 0
-30 37 11 0
44 47 -6 0
-7 -29 -21 0
12 21 5 0
-36 9 -25 0
12 11 47 0
-17 -47 -22 0
-37 -40 -42 0
-14 34 -38 0
-40 -9 25 0
-23 21 -40 0
-39 38 -16 0
34 21 -32 0
17 -4 2 0
-44 43 23 0
-29 -47 -19 0
5 -46 20 0
11 44 32 0
44 -28 -41 0
-36 -21 -5 0
21 20 -43 0
-13 -18 -32 0
-16 -3 -40 0
28 -29 -38 0
-21 32 22 0
-43 -29 -37 0
-45 -41 14 0
-10 -29 30 0
27 28 -40 0
19 -35 -28 0
7 -24 18 0
-6 -40 -8 0
32 -6 -39 0
-44 -18 -6 0
31 47 -6 0
-22 46 -34 0
12 34 24 0
8 -1 22 0
-34 3 -30 0
18 41 -25 0
28 44 -42 0
-33 47 24 0
18 3 -22 0
40 46 10 0
22 -30 -39 0
30 -24 32 0
-42 -33 -36 0
28 12 -4 0
15 16 17 0
5 35 38 0
-15 -1 -43 0
-41 3 19 0
-47 41 -17 0
-4 -12 26 0
-14 41 31 0
11 4 -22 0
31 14 -41 0
-7 -16 -40 0
32 -7 43 0
44 24 36 0
36 11 28 0
-30 38 -8 0
-12 44 20 0
42 -12 10 0
8 37 -39 0
-20 -7 5 0
-42 36 6 0
-27 39 -1 0
28 11 33 0
-1 -34 37 0
29 -9 22 0
34 25 12 0
-43 47 -46 0
-8 15 -39 0
42 15 -16 0
-12 42 -26 0
-43 -19 -38 0
32 9 -17 0
-42 47 31 0
-21 -32 -16 0
45 -35 36 0
-27 -25 21 0
34 27 -24 0
46 33 -45 0
23 -31 -40 0
42 46 -45 0
2 26 36 0
-44 27 -47 0
-43 -8 46 0
11 -36 -42 0
34 -12 -22 0
-35 -29 34 0
8 -42 -27 0
36 9 20 0
9 -11 36 0
30 -15 27 0
37 31 -2 0
-31 -12 19 0
47 29 30 0
-19 -8 -30 0
-39 -7 -6 0
22 6 38 0
35 46 40 0
-45 34 18 0
-39 10 -27 0
-2 39 12 0
-46 47 -6 0
-16 -20 1 0
29 -20 22 0
3 -4 -33 0
4 -13 -34 0
2 -19 -45 0
-34 -9 -3 0
9 -8 4 0
36 -31 -24 0
35 3 -6 0
-18 -43 45 0
44 19 -3 0
-46 -30 21 0
20 -31 -29 0
-39 10 35 0
42 -14 -23 0
20 33 44 0
21 30 -31 0
23 -32 -14 0
11 -17 -32 0
-7 42 -24 0
-29 25 41 0
-3 23 -17 0
22 -41 -15 0
31 40 43 0
33 -11 -22 0
-35 -47 4 0
-15 21 13 0
43 33 -3 0
25 -31 -5 0
-5 -30 -19 0
-30 -8 -21 0
-39 -46 -22 0
24 19 10 0
-26 42 -29 0
-9 -22 -16 0
-15 -23 -29 0
13 34 -6 0
-7 38 18 0
-28 -38 41 0
-13 3 42 0
31 -17 -29 0
-10 43 3 0
7 15 32 0
47 17 7 0
-31 3 18 0
4 -28 10 0
23 21 -10 0
15 44 -30 0
-47 39 40 0
-26 -44 -5 0
-3 -18 -41 0
-35 45 -19 0
-45 44 -40 0
35 8 20 0
-2 19 12 0
-3 -24 38 0
-31 -28 -30 0
-11 -4 19 0
-32 -16 -1 0
47 29 13 0
-15 -6 -25 0
34 -38 -7 0
-38 43 -44 0
-46 43 16 0
-11 40 -24 0
-37 -11 -19 0
