c Coffinhead hard-core n=47 seed=28 ratio=4.0
p cnf 47 188
-18 4 6 0
33 -41 31 0
-38 30 -9 0
-37 -34 -8 0
40 -10 -14 0
-41 11 -24 0
42 -29 -13 0
46 38 13 0
-9 32 28 0
-44 -21 -33 0
34 -18 23 0
-47 2 -16 0
-31 23 -14 0
25 -22 -46 0
-26 6 -46 0
45 -47 29 0
-43 -21 -9 0
39 6 -13 0
10 42 16 0
-40 -46 -11 0
-34 28 24 0
-27 -34 3 0
-31 -20 4 0
19 33 21 0
-5 -17 -36 0
34 -44 11 0
20 -25 34 0
19 38 4 0
-18 -14 1 0
-13 42 -7 0
-31 -36 10 0
27 39 -25 0
31 12 38 0
-37 -10 12 0
-11 -25 -14 0
-1 -19 29 0
-17 -4 -12 0
-31 -11 18 0
-41 45 13 0
20 -45 -7 0
-40 47 31 0
42 3 25 0
-38 40 1 0
-5 17 -4 0
-6 -23 -3 0
-19 -16 -47 0
21 8 43 0
23 1 -45 0
-23 26 -42 0
-38 19 -23 0
-37 44 14 0
38 12 -17 0
-15 40 36 0
21 37 19 0
-10 25 14 0
2 -8 27 0
3 -43 46 0
45 -20 16 0
-12 20 -32 0
-4 30 11 0
15 35 41 0
-14 22 -47 0
4 -33 -41 0
-29 8 -30 0
34 -16 -5 0
34 37 4 0
-3 -29 40 0
-43 37 -2 0
17 4 -7 0
-6 -5 -41 0
-7 35 -5 0
-44 -15 3 0
-22 32 24 0
-17 39 -28 0
-32 -33 -15 0
-31 8 -35 0
-21 -35 -15 0
27 7 -31 0
11 -22 -17 0
12 40 45 0
38 31 36 0
9 -14 6 0
-4 32 -45 0
-39 -46 -24 0
-8 2 -44 0
18 41 -13 0
30 -41 -28 0
13 -26 35 0
-28 -44 18 0
24 37 -33 0
-17 -4 46 0
-17 19 -28 0
-15 4 44 0
-22 43 -27 0
-15 6 -3 0
5 30 47 0
37 -32 -18 0
28 37 -8 0
22 -21 33 0
39 22 -9 0
-25 33 -11 0
5 -21 28 0
35 -21 6 0
-25 -28 8 0
-47 34 18 0
42 7 -4 0
-44 -22 24 0
-6 38 1 0
17 -32 -45 0
-14 -24 18 0
14 -42 47 0
-20 -23 -47 0
-43 10 9 0
-45 -26 -18 0
-46 -39 13 0
-44 -30 -8 0
-36 2 15 0
-36 19 11 0
14 30 -15 0
-25 -40 26 0
-28 -15 42 0
27 18 19 0
-7 14 -44 0
18 27 5 0
-24 36 -44 0
-2 15 -11 0
-33 -45 -28 0
-8 -3 20 0
-6 -41 32 0
-1 -9 28 0
23 20 2 0
-9 -5 23 0
-46 22 40 0
-38 -41 34 0
43 -46 9 0
19 12 34 0
-46 9 13 0
33 -38 -15 0
31 36 38 0
22 -4 -14 0
15 16 -10 0
26 -34 -39 0
-16 11 36 0
16 -32 13 0
-2 -34 38 0
-9 28 -46 0
21 -23 -45 0
-1 -29 12 0
33 43 -47 0
-7 47 42 0
46 -20 -42 0
-26 27 -46 0
-36 -15 -46 0
15 -9 -16 0
41 -9 -27 0
-33 -28 -22 0
35 -5 -8 0
46 9 28 0
-22 -21 -3 0
39 16 -8 0
-18 -29 45 0
-15 12 1 0
35 8 37 0
-18 46 -24 0
-25 13 -5 0
-32 -47 -45 0
-3 -1 21 0
11 -3 12 0
17 41 -31 0
-6 14 28 0
-30 5 -7 0
8 42 -12 0
-12 -28 -44 0
-45 22 -37 0
46 22 44 0
-33 10 -36 0
8 -18 17 0
43 -27 18 0
36 -31 1 0
29 -24 -37 0
-16 -37 30 0
-2 14 45 0
32 6 33 0
-47 19 -35 0
19 42 -33 0
-39 15 4 0
29 -19 -8 0
-43 46 -13 0
