c Coffinhead hard-core n=47 seed=34 ratio=4.0
p cnf 47 188
22 -33 -1 0
-17 47 -30 0
-14 -37 -41 0
32 -38 -7 0
-9 -30 -39 0
-9 -14 -19 0
-17 31 16 0
26 -35 15 0
36 -1 26 0
-27 -9 -43 0
-37 46 -32 0
11 -39 -20 0
2 -13 47 0
29 -16 -47 0
30 -8 11 0
-1 5 -35 0
24 14 -3 0
25 19 10 0
-7 27 -31 0
14 -6 23 0
12 4 26 0
21 44 -35 0
35 -44 -31 0
26 4 44 0
24 -16 17 0
-25 -30 -10 0
40 38 -26 0
35 -12 13 0
31 20 2 0
-36 21 -5 0
28 -18 -29 0
-20 -43 -33 0
-41 -24 -37 0
24 -34 11 0
42 -9 -15 0
22 33 23 0
44 36 7 0
40 36 21 0
12 39 28 0
-47 -33 5 0
36 8 -29 0
-31 27 -16 0
-24 1 -23 0
-44 4 42 0
29 -13 31 0
33 1 36 0
-1 29 -23 0
-41 -5 -28 0
-4 39 31 0
40 -5 34 0
-16 15 -14 0
-15 37 3 0
35 15 43 0
4 28 46 0
43 3 -8 0
-42 19 -26 0
-34 -30 37 0
-6 24 -17 0
-38 -27 -13 0
21 -14 43 0
45 28 20 0
31 16 34 0
44 7 -34 0
26 29 32 0
-4 6 -9 0
35 10 -44 0
27 -6 36 0
36 -31 -28 0
29 -13 23 0
-21 -13 47 0
20 5 -15 0
31 -11 21 0
26 -34 17 0
16 5 -19 0
-9 14 -44 0
-9 26 -27 0
-36 -23 24 0
-47 -20 6 0
-45 -2 19 0
23 16 13 0
-44 19 15 0
31 -38 -15 0
9 -23 45 0
-4 10 -45 0
12 30 -5 0
-7 -9 -47 0
-36 -20 44 0
-10 -39 -26 0
35 -29 -45 0
-47 32 -33 0
-40 -46 -29 0
28 -43 -23 0
-46 34 -6 0
-20 40 -19 0
-35 -3 -26 0
-18 7 5 0
-26 -30 32 0
43 -3 42 0
8 25 23 0
-2 20 23 0
-26 21 45 0
-17 -1 15 0
-21 -30 24 0
-1 23 26 0
45 39 31 0
-43 29 10 0
-13 -26 -16 0
-5 -22 21 0
-33 6 -26 0
9 33 15 0
-27 22 -24 0
-38 26 28 0
-23 20 41 0
47 32 9 0
-34 40 -7 0
-40 25 -16 0
6 9 -1 0
-40 19 -38 0
-27 -35 30 0
45 -20 -18 0
37 -30 -5 0
-1 35 9 0
21 36 -31 0
15 -25 -10 0
46 13 -40 0
-35 -18 -5 0
-14 6 39 0
-2 -35 -16 0
36 -46 -3 0
6 -2 -13 0
-15 -25 -22 0
-45 -27 -36 0
-17 20 -44 0
-30 15 35 0
41 -35 13 0
35 23 -5 0
47 -6 -12 0
-32 -42 15 0
29 -10 -47 0
17 -38 -14 0
-6 17 11 0
-5 43 -4 0
-23 -10 39 0
34 -32 18 0
-15 47 -3 0
-17 10 -25 0
-4 -32 40 0
22 25 -16 0
-4 37 -15 0
-22 10 26 0
39 -41 27 0
-4 16 -3 0
-21 43 -47 0
-12 -13 -46 0
-3 4 -16 0
-3 22 38 0
-46 36 -20 0
34 -5 21 0
27 42 -44 0
1 3 43 0
-18 6 -45 0
-2 42 -40 0
23 -45 -29 0
39 15 44 0
-19 -25 42 0
-5 40 -42 0
-24 -28 34 0
-25 30 -29 0
-10 -7 -5 0
-36 -32 -27 0
29 10 -27 0
4 -29 5 0
-11 45 -30 0
47 -16 -10 0
-1 45 -33 0
-2 5 39 0
28 24 -15 0
37 27 -15 0
-39 10 -18 0
31 7 4 0
-13 -7 34 0
-12 37 -38 0
-25 -1 42 0
11 16 -15 0
32 30 45 0
-27 -44 12 0
-7 39 -18 0
-6 -21 -10 0
