c Coffinhead hard-core n=47 seed=17 ratio=4.0
p cnf 47 188
35 -8 -26 0
17 -6 39 0
7 -30 21 0
-41 37 -32 0
-31 12 11 0
30 26 -19 0
-38 47 -10 0
39 -43 -41 0
2 -1 37 0
-29 -11 -46 0
-27 29 -28 0
-47 3 33 0
11 -27 -32 0
-42 26 28 0
18 -46 -2 0
26 41 -13 0
-43 -30 -33 0
36 23 -15 0
14 -41 20 0
25 -26 30 0
-43 -25 -35 0
8 -10 -46 0
3 1 -45 0
-33 28 -27 0
-25 -46 -35 0
-4 -16 -3 0
-41 -23 -3 0
46 19 20 0
13 4 46 0
-27 47 -38 0
-43 33 -4 0
-35 7 30 0
35 13 -47 0
36 40 -18 0
-12 -11 -29 0
-24 9 11 0
38 -34 27 0
2 29 -42 0
45 -39 -13 0
-29 8 -11 0
-12 -35 14 0
-47 -45 1 0
19 34 -41 0
-42 41 3 0
-2 -3 6 0
-6 -5 32 0
-22 3 9 0
16 -8 42 0
13 -7 19 0
-29 -16 -6 0
29 27 -22 0
-46 39 9 0
-14 21 -2 0
-33 -31 -6 0
18 -17 -11 0
-42 -41 9 0
16 -2 26 0
-19 -46 26 0
46 28 31 0
-2 -33 35 0
-7 45 -17 0
20 32 -31 0
20 21 -7 0
1 3 -47 0
10 -13 2 0
25 9 6 0
27 -3 44 0
-15 13 -5 0
-5 39 -24 0
20 10 -12 0
-38 -9 -15 0
-31 -14 36 0
-7 46 43 0
-42 28 -41 0
-19 -22 -44 0
-36 -35 -38 0
-7 -47 -22 0
-1 42 3 0
-47 -11 -31 0
33 -11 -1 0
-10 -38 32 0
-6 -44 20 0
14 -36 35 0
21 12 27 0
47 17 40 0
-38 21 -10 0
10 -36 -3 0
-12 47 -9 0
21 20 -24 0
-10 39 38 0
29 -13 24 0
-8 -38 25 0
-1 46 -41 0
-15 23 -45 0
-19 -5 -10 0
29 35 -16 0
33 -14 -24 0
39 -2 -44 0
-28 -25 13 0
17 34 26 0
-15 -36 9 0
-29 15 40 0
24 4 -5 0
38 20 45 0
38 -17 -40 0
39 -10 36 0
-38 46 26 0
3 -46 -7 0
27 7 29 0
-41 -27 3 0
15 4 -11 0
-25 21 6 0
4 14 41 0
-40 38 -32 0
-44 36 25 0
45 -35 43 0
-44 35 13 0
45 26 36 0
21 42 8 0
11 -8 31 0
-16 9 -22 0
5 11 44 0
26 -11 -38 0
-19 -12 -42 0
-24 9 -34 0
5 -31 29 0
-21 47 -46 0
40 43 38 0
16 -10 -14 0
4 -29 -33 0
-14 29 25 0
39 8 28 0
-17 15 46 0
-13 17 -32 0
-12 -7 -35 0
1 -37 -21 0
35 39 -44 0
-1 -43 24 0
-45 -37 -35 0
-30 -18 -39 0
4 -25 41 0
28 6 44 0
28 -45 9 0
24 -46 -44 0
-21 23 -25 0
-46 13 -36 0
-19 -34 39 0
40 26 3 0
6 44 -30 0
-11 18 23 0
-47 43 -16 0
-6 7 -18 0
38 -15 -18 0
-16 26 -41 0
36 -46 20 0
31 -39 30 0
18 -13 17 0
-36 -27 43 0
9 4 -1 0
14 6 31 0
-22 31 -46 0
3 35 -8 0
1 -20 16 0
5 -6 15 0
24 34 -5 0
-25 -8 47 0
45 9 12 0
21 26 31 0
-18 44 -27 0
45 -36 -18 0
2 -47 -34 0
-11 25 -41 0
-25 -11 -30 0
24 1 -13 0
-30 -36 -8 0
16 42 23 0
-1 47 15 0
26 36 10 0
26 -36 -25 0
-31 19 -8 0
-21 -20 1 0
1 43 -14 0
-47 -7 29 0
28 -14 -36 0
-14 -41 42 0
-22 47 -7 0
-26 35 -16 0
35 -27 -24 0
