c Coffinhead hard-core n=47 seed=61 ratio=4.0
p cnf 47 188
8 -4 19 0
24 -40 -9 0
-2 -14 -33 0
-12 40 -41 0
26 -35 45 0
30 -44 16 0
2 1 36 0
-44 22 18 0
37 32 -29 0
45 -17 -19 0
11 6 45 0
8 12 -9 0
17 1 -15 0
-17 31 4 0
42 -13 -16 0
29 12 24 0
-35 -3 -12 0
-17 23 20 0
29 44 -13 0
-19 -39 -26 0
-12 -17 -13 0
-9 -16 42 0
-44 36 -7 0
25 34 40 0
28 43 -19 0
-37 -46 -7 0
46 -37 -15 0
1 -2 22 0
-26 -34 -38 0
33 -44 -6 0
7 44 -15 0
22 35 -38 0
-9 -36 18 0
11 -21 47 0
31 2 -18 0
-42 15 28 0
39 -25 41 0
44 -16 -22 0
-32 -45 -37 0
23 -39 44 0
23 -30 -7 0
39 -37 -30 0
36 -44 31 0
-3 -24 -47 0
10 -18 -9 0
6 -47 29 0
-30 -12 -33 0
-4 38 -25 0
4 -40 36 0
43 14 12 0
-17 30 -19 0
-47 3 -20 0
36 12 -45 0
23 -20 -24 0
-44 4 2 0
4 -42 -40 0
1 17 -12 0
-12 28 27 0
14 -8 37 0
-3 7 46 0
45 -12 28 0
38 37 -16 0
-5 33 21 0
39 10 12 0
47 -14 -15 0
22 5 6 0
7 -11 46 0
-27 43 -25 0
7 -44 45 0
38 41 10 0
23 -5 21 0
-1 34 13 0
30 43 -39 0
-23 -15 33 0
32 10 2 0
-43 -18 -24 0
29 -14 39 0
-41 4 -27 0
46 15 -6 0
40 -29 -47 0
-9 47 -14 0
16 35 -37 0
39 -2 17 0
42 -33 -8 0
20 24 -15 0
15 46 34 0
-18 -28 -39 0
29 -35 -42 0
46 30 -43 0
37 -47 16 0
-43 25 -10 0
19 17 8 0
6 -11 44 0
-1 -29 18 0
2 35 -14 0
8 39 16 0
38 37 -10 0
1 -42 16 0
27 -39 26 0
1 7 41 0
12 -21 -35 0
46 31 -13 0
10 -4 37 0
-17 3 6 0
31 13 5 0
-21 -30 29 0
20 -35 34 0
20 -29 21 0
37 34 8 0
-15 25 -5 0
33 14 -16 0
33 44 -8 0
-40 -19 -15 0
-35 18 3 0
3 -26 19 0
-8 -47 32 0
-40 25 2 0
6 20 -1 0
47 -39 4 0
18 -4 41 0
18 42 2 0
38 -45 16 0
-38 -29 -46 0
40 -37 -3 0
47 31 36 0
16 -5 -11 0
-29 -31 10 0
31 2 -24 0
47 19 17 0
-43 -17 -40 0
29 18 -38 0
15 42 -39 0
-16 25 -36 0
33 11 30 0
-16 30 -23 0
14 41 11 0
-39 43 11 0
45 9 25 0
42 10 -1 0
30 -24 -27 0
-24 22 -29 0
8 29 16 0
26 46 -18 0
40 -18 -3 0
-23 -3 43 0
-11 31 2 0
29 20 -24 0
-5 -42 32 0
4 22 14 0
-17 39 -47 0
41 21 17 0
13 -15 -29 0
-31 17 -14 0
8 -12 15 0
8 1 27 0
-47 14 3 0
-5 -16 -14 0
25 30 45 0
-34 -27 10 0
19 -41 16 0
22 -3 40 0
23 -9 41 0
11 38 9 0
10 37 -42 0
12 35 -17 0
32 37 -20 0
-38 31 25 0
1 5 -18 0
6 5 38 0
-29 -33 -14 0
31 25 43 0
5 -23 3 0
2 -13 46 0
-39 -12 -17 0
13 19 30 0
-34 6 -12 0
3 44 -33 0
38 36 31 0
37 -20 4 0
35 7 16 0
-4 -33 -23 0
12 6 -24 0
-20 -47 21 0
-1 -41 12 0
-16 -32 -10 0
-20 18 47 0
20 19 7 0
15 -25 -43 0
