c Coffinhead hard-core n=47 seed=3 ratio=4.0
p cnf 47 188
-28 40 -33 0
8 47 11 0
-11 -33 -7 0
-47 -4 19 0
-20 27 -43 0
-40 15 22 0
12 42 26 0
2 -47 -46 0
27 -6 -33 0
-31 -46 -28 0
31 -16 -10 0
-40 -1 -39 0
33 36 7 0
16 11 -7 0
20 -15 -34 0
44 -40 -15 0
-1 46 14 0
29 -2 33 0
-8 47 -29 0
-3 -31 -18 0
3 9 -22 0
-2 23 40 0
-47 -45 -20 0
-36 -22 2 0
11 -32 -41 0
7 -37 -13 0
13 30 17 0
-27 37 -20 0
26 -43 19 0
38 -21 41 0
-32 -13 -22 0
-45 -41 12 0
3 -4 14 0
36 26 -20 0
-1 9 -43 0
-13 -15 21 0
27 38 -40 0
-14 -5 -7 0
8 43 45 0
39 6 -27 0
-38 -33 14 0
-18 47 5 0
-12 38 32 0
41 -26 30 0
45 -30 22 0
-2 -30 -41 0
-24 -13 31 0
25 -37 -35 0
13 34 44 0
1 32 -28 0
-12 -3 27 0
32 -17 45 0
-8 2 -16 0
30 -16 -42 0
-46 -22 -10 0
-41 -5 -45 0
34 38 -22 0
-38 29 -31 0
-13 -17 36 0
-41 -45 -26 0
17 26 -23 0
23 -29 14 0
-38 17 19 0
12 -16 -18 0
38 26 -25 0
-6 -47 -2 0
-23 42 26 0
-47 24 3 0
3 45 41 0
24 46 -1 0
-7 17 8 0
40 27 -26 0
-33 -41 -45 0
-24 40 -26 0
-34 10 27 0
41 -42 -35 0
-34 4 30 0
31 -29 -43 0
-23 26 42 0
13 22 31 0
-31 21 -23 0
-40 -28 -39 0
35 38 -32 0
-17 -47 -31 0
47 32 43 0
45 -36 14 0
2 6 29 0
44 -3 -30 0
-21 17 44 0
1 41 36 0
-40 31 -19 0
12 31 -39 0
-12 47 21 0
37 38 30 0
12 23 7 0
34 41 13 0
33 37 -36 0
-27 3 24 0
46 33 28 0
-9 11 -14 0
9 -3 -45 0
-20 -38 -9 0
-32 -35 1 0
30 -40 11 0
-2 -26 29 0
13 -19 32 0
-18 -34 -16 0
29 36 -44 0
-23 -35 2 0
18 16 -41 0
-40 -23 -19 0
21 32 28 0
28 -8 23 0
27 -7 -43 0
-17 -22 26 0
9 -42 45 0
-7 -33 -39 0
-17 25 -8 0
46 -36 -41 0
-3 -12 -23 0
2 -41 18 0
-25 -40 32 0
-16 26 6 0
-12 -32 20 0
-2 16 18 0
25 47 -19 0
29 -20 21 0
-42 35 37 0
38 29 -44 0
8 -44 42 0
17 42 -10 0
-46 -13 2 0
20 -30 -31 0
-13 31 26 0
-40 -6 43 0
10 3 -11 0
-36 44 -28 0
-31 -10 8 0
13 30 -7 0
10 -21 13 0
-21 -39 28 0
47 -37 -28 0
-31 3 -25 0
26 5 24 0
47 -4 32 0
-42 43 28 0
21 42 -20 0
22 -30 -7 0
-40 -24 18 0
-12 -17 41 0
-9 23 43 0
-15 -34 2 0
-4 -31 -2 0
9 33 -13 0
-29 21 45 0
-13 -38 35 0
24 -3 45 0
-16 21 42 0
37 7 -19 0
11 -44 5 0
-20 13 6 0
12 7 -1 0
11 16 -22 0
-37 -47 -4 0
-25 16 -24 0
-36 37 15 0
-26 -40 -12 0
-33 40 -21 0
31 24 46 0
28 -29 -39 0
6 -3 -11 0
7 -45 23 0
-43 32 44 0
-35 45 24 0
33 10 1 0
-17 -40 -15 0
23 -32 31 0
-24 -10 -17 0
-24 -4 -37 0
-31 -18 21 0
-30 25 21 0
15 23 -5 0
-35 -34 26 0
41 -9 -35 0
-27 46 43 0
-23 -37 -9 0
-9 -40 18 0
40 46 -43 0
