c Coffinhead hard-core n=47 seed=45 ratio=4.0
p cnf 47 188
30 37 -22 0
-13 -16 -17 0
-12 39 6 0
6 -13 -24 0
33 12 -37 0
-18 -25 -29 0
-15 37 -44 0
10 -36 -28 0
-6 46 47 0
30 -3 -36 0
6 -13 16 0
18 25 -29 0
-27 -8 5 0
-23 5 -15 0
35 -38 -23 0
19 -2 36 0
15 -44 20 0
24 -47 27 0
-42 19 12 0
-47 12 27 0
13 10 5 0
16 -13 42 0
27 -3 13 0
-20 -27 18 0
-3 -34 -16 0
-29 -25 3 0
9 -41 43 0
47 21 45 0
-8 6 1 0
9 33 26 0
3 -4 -27 0
-14 -11 30 0
-33 -37 -19 0
-44 -19 42 0
25 41 -47 0
-14 15 -46 0
10 21 -5 0
-35 47 -40 0
-26 36 -17 0
-39 41 -1 0
39 -35 8 0
47 31 24 0
-46 -15 -47 0
43 -30 7 0
32 -39 16 0
41 3 -10 0
-3 42 9 0
-35 -14 -34 0
13 -38 -35 0
29 30 -6 0
37 -24 17 0
42 -5 3 0
7 34 -24 0
37 -43 -29 0
-4 -18 29 0
-5 -29 20 0
33 -17 -15 0
35 -17 33 0
-40 10 -41 0
9 -32 5 0
-1 -22 -25 0
-35 31 -11 0
4 -43 37 0
16 -6 44 0
29 30 -38 0
-45 25 -30 0
31 -2 -43 0
19 28 -8 0
-15 31 -33 0
46 -20 31 0
-4 39 27 0
-11 -31 -40 0
-13 -33 -28 0
-43 -34 9 0
-32 5 46 0
7 37 2 0
21 8 20 0
43 22 -35 0
2 39 -15 0
25 -38 -39 0
-4 47 17 0
28 5 44 0
31 -29 37 0
9 -2 18 0
15 23 16 0
-45 44 -10 0
38 -26 2 0
-43 -22 32 0
-6 -28 -19 0
28 18 1 0
-30 26 42 0
31 -13 38 0
21 26 22 0
-19 40 -8 0
-37 28 -26 0
-8 -26 -23 0
-25 32 1 0
40 47 -17 0
-34 -47 -5 0
7 -20 -1 0
-29 37 -6 0
-33 -12 -7 0
23 14 -9 0
5 -14 36 0
29 -6 31 0
-21 -35 -45 0
22 -13 -17 0
14 -38 36 0
17 -40 -33 0
1 -27 -22 0
2 -44 9 0
-18 -43 -35 0
12 43 -10 0
34 2 -40 0
-9 -37 10 0
-29 41 45 0
25 -35 -32 0
24 -8 -6 0
40 8 -41 0
27 40 34 0
-23 -26 27 0
21 -27 -22 0
18 45 44 0
-4 -17 39 0
-16 -8 44 0
5 -24 44 0
42 -31 22 0
44 1 46 0
16 -34 3 0
38 1 20 0
25 -43 38 0
18 34 2 0
-38 -45 24 0
30 -1 -40 0
-39 -29 -21 0
21 -4 12 0
-34 20 -47 0
-38 22 29 0
-5 41 -15 0
21 1 15 0
-35 21 19 0
1 15 33 0
-15 -41 -36 0
-27 -17 3 0
46 31 28 0
-32 -10 3 0
31 -14 -22 0
-24 39 -29 0
-25 16 -23 0
40 33 -23 0
-19 -1 45 0
21 28 6 0
-11 -27 41 0
-27 -46 45 0
-32 -5 -8 0
-30 -19 -15 0
9 11 40 0
-9 10 -8 0
-32 25 31 0
16 -40 -5 0
-21 -42 2 0
28 42 -2 0
10 -28 -31 0
3 -44 -10 0
33 29 -42 0
3 -45 5 0
-4 17 -12 0
15 -4 23 0
38 34 42 0
-12 -31 -18 0
-5 -18 -19 0
-39 5 35 0
9 26 -38 0
14 -13 5 0
18 -42 36 0
-46 -15 26 0
47 -18 -42 0
-45 -9 -17 0
-3 -29 -38 0
8 -14 2 0
15 38 -33 0
-43 18 33 0
20 -31 39 0
-16 25 6 0
10 -31 -38 0
33 35 -31 0
-34 -6 -7 0
44 8 26 0
