c Coffinhead hard-core n=47 seed=38 ratio=4.0
p cnf 47 188
11 -7 34 0
7 40 38 0
26 -3 -30 0
-15 -31 26 0
-6 -39 -22 0
40 28 30 0
17 -20 25 0
-31 37 12 0
-21 36 46 0
-30 -13 -34 0
-17 40 -31 0
16 43 20 0
28 -22 -24 0
-22 -1 10 0
31 23 3 0
24 10 37 0
46 -21 32 0
-14 -42 -16 0
-1 -44 -33 0
9 -15 -23 0
35 17 -16 0
31 35 -17 0
29 19 44 0
32 36 13 0
-35 -10 -34 0
47 14 28 0
35 -40 2 0
46 40 -9 0
12 10 1 0
-20 1 -6 0
-9 -1 31 0
20 36 39 0
23 10 -9 0
4 -20 25 0
21 -4 -20 0
9 -37 -14 0
-8 35 -10 0
11 34 -8 0
-46 -28 -13 0
-29 -34 6 0
14 23 46 0
-24 39 -42 0
23 -34 1 0
-10 22 -45 0
-37 9 -12 0
-46 -10 -8 0
13 46 36 0
-7 -26 -39 0
12 -14 -37 0
35 -7 37 0
-7 12 13 0
-32 21 1 0
16 2 -18 0
40 -47 45 0
-35 -43 13 0
-47 2 -14 0
14 -8 32 0
-15 33 -31 0
-8 26 -47 0
31 12 36 0
-28 -10 -46 0
21 -2 -10 0
44 28 -36 0
-39 8 12 0
-31 -24 -2 0
7 -35 19 0
20 10 -4 0
7 -31 -37 0
10 12 44 0
39 -5 -4 0
7 -11 -24 0
-11 41 -20 0
19 -8 -29 0
-43 7 -8 0
-14 40 6 0
13 8 35 0
6 23 -11 0
19 -33 -12 0
8 -3 27 0
15 -16 -13 0
-21 -7 39 0
20 -22 44 0
-23 -29 -35 0
38 16 -15 0
30 -4 38 0
-28 20 -1 0
-47 1 -37 0
23 -35 14 0
8 25 36 0
45 17 8 0
25 -28 -12 0
46 -3 -21 0
-10 -8 37 0
-31 11 -24 0
18 4 40 0
-11 -47 -42 0
37 36 24 0
8 -44 -45 0
28 32 5 0
-3 -41 -1 0
-28 19 21 0
-35 -47 -7 0
44 35 -6 0
11 7 42 0
46 14 -15 0
-14 -44 1 0
26 34 -12 0
-3 -29 -1 0
-13 -44 -42 0
-19 17 -13 0
22 -18 37 0
-10 -7 -14 0
6 -10 -4 0
10 39 3 0
12 -18 34 0
-46 -10 19 0
-20 -40 -1 0
-17 19 -24 0
-34 -22 -5 0
10 -20 17 0
-21 -19 17 0
31 46 -41 0
10 -16 -27 0
-41 -17 35 0
-21 -1 -44 0
-16 -14 35 0
-15 9 -10 0
-22 -9 47 0
3 6 -1 0
-11 -31 -40 0
21 -19 -29 0
-45 32 25 0
12 -38 -5 0
-31 -41 -20 0
5 -24 18 0
-10 5 7 0
-11 32 7 0
18 28 8 0
34 -12 16 0
-5 -23 28 0
6 -7 4 0
33 -5 27 0
-13 20 -42 0
-3 -14 9 0
10 27 40 0
47 -46 38 0
-1 47 -41 0
-29 38 20 0
5 -35 28 0
-34 41 5 0
34 -25 -9 0
-23 4 1 0
6 22 35 0
37 -21 12 0
47 -8 35 0
42 19 -33 0
1 47 -35 0
20 -40 26 0
47 -2 15 0
7 11 -33 0
-14 -7 -23 0
2 29 -25 0
-5 -25 42 0
22 -10 -29 0
19 25 39 0
34 39 25 0
-29 15 23 0
-32 18 -8 0
24 18 -7 0
47 14 22 0
3 44 14 0
34 41 -46 0
3 6 31 0
-4 24 35 0
12 -22 36 0
-28 30 17 0
1 -22 33 0
29 -35 9 0
-9 15 -14 0
-2 38 34 0
21 26 -34 0
5 -26 1 0
37 15 -35 0
-37 -7 2 0
-12 -32 -45 0
-33 -6 -38 0
45 27 25 0
-17 -4 10 0
