c Coffinhead hard-core n=47 seed=4 ratio=4.0
p cnf 47 188
-37 -33 30 0
6 -12 14 0
31 -24 -41 0
7 -9 14 0
-17 -28 -30 0
12 23 40 0
1 4 -23 0
34 24 -13 0
38 14 16 0
-15 9 -28 0
-24 2 47 0
32 26 11 0
-24 17 37 0
13 -46 -22 0
-44 26 -28 0
37 -29 16 0
-4 -22 -31 0
38 5 13 0
4 -7 44 0
-18 -40 -15 0
30 -15 11 0
-12 -16 -44 0
-39 -17 -47 0
-43 44 25 0
17 -20 -34 0
-8 23 41 0
22 12 -43 0
16 40 17 0
44 -35 8 0
20 30 2 0
-39 -27 34 0
36 44 -21 0
-47 26 -7 0
34 16 44 0
-47 -16 -19 0
39 47 1 0
3 -32 41 0
29 19 18 0
-27 -8 13 0
34 -30 15 0
-9 -17 10 0
30 -31 5 0
33 39 1 0
-26 -22 -14 0
16 -37 -18 0
-27 -9 -40 0
27 -30 7 0
-33 15 14 0
-2 40 -30 0
19 -31 -37 0
-39 22 -8 0
33 22 -2 0
-8 -18 39 0
39 10 15 0
18 11 47 0
-18 -4 36 0
30 47 -32 0
36 24 -37 0
5 -30 -22 0
14 -26 -41 0
33 12 35 0
-12 -30 -25 0
-28 -36 32 0
42 17 -19 0
-15 40 -11 0
19 -8 12 0
-46 -1 4 0
14 -15 -12 0
10 45 25 0
32 43 31 0
-33 21 -20 0
-37 21 18 0
-37 -30 40 0
28 -41 30 0
-16 14 -37 0
-38 -3 -24 0
-25 14 -2 0
-28 11 34 0
47 43 -7 0
21 39 -32 0
46 -19 5 0
-30 -14 -29 0
-41 11 -13 0
-33 28 32 0
-38 20 -42 0
-43 -3 16 0
2 -30 -39 0
-16 -23 19 0
15 33 28 0
-42 -19 -47 0
-33 -25 -7 0
38 28 -43 0
-20 36 2 0
11 28 -14 0
39 -10 5 0
-45 -31 -20 0
-32 -13 -6 0
-16 25 -32 0
45 -9 -7 0
45 -30 42 0
-39 30 -47 0
-21 43 4 0
18 -34 45 0
-9 21 -10 0
-17 -14 -19 0
-11 -19 14 0
25 -8 -39 0
37 -15 -12 0
-31 19 13 0
-12 10 -28 0
25 19 4 0
46 -15 40 0
20 8 37 0
30 -1 -32 0
-41 46 23 0
38 -9 27 0
8 20 42 0
36 -10 1 0
-27 -1 -11 0
-18 24 12 0
-32 7 30 0
23 -26 31 0
-19 -27 24 0
14 42 37 0
-33 25 8 0
-33 26 -28 0
-37 -46 -30 0
19 35 -36 0
29 44 21 0
17 -6 7 0
46 39 -35 0
40 -11 -18 0
37 44 -1 0
-41 -10 -44 0
9 -45 13 0
-36 9 -4 0
-4 22 16 0
-21 5 -47 0
41 23 3 0
23 39 -14 0
21 27 -7 0
-15 16 37 0
37 34 28 0
-46 21 -10 0
5 -32 19 0
6 44 3 0
17 -33 22 0
32 9 -10 0
6 32 21 0
37 -40 -46 0
-15 -35 -34 0
45 -18 -1 0
16 3 -30 0
3 15 -16 0
17 3 28 0
38 2 -26 0
23 18 -11 0
-6 -2 -20 0
-38 -4 15 0
1 -12 -2 0
34 -28 15 0
-7 6 -40 0
-21 23 -40 0
20 -30 36 0
19 24 10 0
-32 35 -16 0
10 -19 -2 0
28 18 -33 0
2 -9 25 0
39 -32 11 0
5 -44 -23 0
-4 -45 -33 0
34 -22 -19 0
3 -36 -34 0
24 10 -38 0
-31 3 5 0
-19 -16 -36 0
-31 -46 -26 0
-28 17 45 0
30 33 8 0
-20 34 10 0
-44 -1 -16 0
-21 -20 -18 0
24 43 42 0
3 -8 -24 0
1 -45 -12 0
32 -17 5 0
43 5 33 0
