c Coffinhead hard-core n=47 seed=12 ratio=4.0
p cnf 47 188
-15 -26 -25 0
44 -11 10 0
-18 35 45 0
17 16 -47 0
14 -9 -7 0
-36 -46 10 0
13 33 40 0
-39 5 36 0
45 9 26 0
-43 26 25 0
-46 -43 10 0
16 38 -46 0
-13 -22 5 0
1 24 -42 0
-47 -16 -44 0
19 4 -38 0
-24 34 44 0
42 10 -15 0
36 14 43 0
11 -30 -28 0
-39 24 -8 0
-36 -19 -24 0
18 29 -47 0
40 15 16 0
-25 30 3 0
31 -30 -24 0
-5 35 33 0
-16 -23 36 0
-42 -43 -5 0
41 43 6 0
-8 -26 -3 0
30 -40 12 0
36 28 32 0
-38 44 -3 0
43 22 26 0
-12 -42 44 0
1 6 8 0
44 -31 15 0
36 -18 28 0
-45 -38 21 0
-28 -13 3 0
41 15 -42 0
-2 -24 9 0
24 8 9 0
11 -8 44 0
-31 40 30 0
-8 -11 42 0
8 28 45 0
21 34 -33 0
-15 17 13 0
39 -18 -15 0
-11 23 7 0
25 4 -1 0
-32 34 30 0
26 28 -24 0
2 -30 9 0
-30 -43 5 0
47 -33 3 0
42 15 -4 0
8 4 -18 0
20 36 -18 0
23 42 41 0
11 43 35 0
20 -4 -9 0
-31 -36 -4 0
-45 17 -16 0
42 -37 7 0
5 21 -4 0
34 19 12 0
-8 11 -37 0
30 40 -15 0
24 -43 -20 0
-20 30 -9 0
34 -46 24 0
-6 35 -17 0
34 17 -46 0
45 -20 16 0
17 40 29 0
-46 -19 -37 0
35 11 20 0
-14 16 9 0
-47 18 -41 0
-16 -39 -1 0
20 -17 11 0
-28 25 43 0
10 28 -35 0
-23 41 9 0
37 30 25 0
-46 -47 2 0
43 -41 -21 0
-17 -39 -44 0
12 17 -15 0
-16 -30 -27 0
-21 13 17 0
-13 5 -7 0
14 -36 5 0
-1 -3 6 0
-47 -6 36 0
-41 -30 35 0
-31 26 12 0
7 -3 9 0
-36 -22 -25 0
-14 -33 7 0
-33 -44 35 0
-41 38 19 0
-17 -2 -34 0
-38 16 3 0
-44 45 11 0
5 -29 44 0
-14 36 -17 0
-17 -33 45 0
-29 39 44 0
-29 41 10 0
23 -21 16 0
-31 47 46 0
-29 -46 -21 0
-20 43 3 0
-23 -38 -29 0
14 46 9 0
22 7 42 0
23 -35 4 0
1 -21 -36 0
-35 -11 -29 0
6 -9 -42 0
-22 37 2 0
10 13 12 0
22 13 -1 0
46 -12 19 0
-23 -22 30 0
-33 40 4 0
-9 -4 -36 0
-39 17 -22 0
38 39 -40 0
15 20 14 0
1 30 -6 0
46 39 28 0
-45 34 28 0
30 -44 36 0
31 30 43 0
-43 -26 30 0
8 -18 39 0
-10 11 6 0
11 -42 8 0
47 -29 30 0
-17 -38 22 0
-20 -36 4 0
16 32 26 0
-41 -16 6 0
42 13 -47 0
31 42 21 0
-18 -40 25 0
-41 19 7 0
-38 -30 -20 0
-40 -46 14 0
36 -2 15 0
-7 44 -31 0
-43 3 8 0
18 25 31 0
-36 34 26 0
5 -24 44 0
27 -23 43 0
-18 -13 -8 0
-8 -13 47 0
2 5 -26 0
34 44 -45 0
-41 20 -39 0
19 -39 25 0
42 -20 -19 0
-40 -19 9 0
-1 42 -14 0
-13 -17 -20 0
-7 6 19 0
26 -6 22 0
-6 37 -31 0
15 24 30 0
17 43 26 0
-29 43 37 0
27 -2 -41 0
47 -10 2 0
-11 -21 5 0
-42 14 21 0
-41 28 12 0
3 -35 13 0
42 34 -28 0
27 -39 -14 0
44 -34 -18 0
16 18 29 0
-3 24 -12 0
