c Coffinhead hard-core n=75 seed=15 ratio=4.0
p cnf 75 300
-16 10 -42 0
-55 24 -38 0
-71 -14 -57 0
22 8 -69 0
22 -41 -39 0
-74 46 62 0
66 31 -21 0
31 22 -72 0
-69 -39 -59 0
31 -43 -26 0
-22 71 -42 0
-74 31 -43 0
55 14 33 0
26 -62 16 0
5 24 -18 0
13 50 33 0
-75 38 -62 0
-15 43 -36 0
-56 -46 63 0
37 52 -26 0
39 63 68 0
-25 22 13 0
-46 20 4 0
-75 23 -69 0
-16 -64 1 0
-2 60 -32 0
18 20 -27 0
56 71 -8 0
-13 -6 39 0
68 18 73 0
-33 -51 26 0
-41 11 -23 0
-6 12 -48 0
4 -71 37 0
-32 18 73 0
-65 33 1 0
-15 -50 4 0
40 69 59 0
5 2 15 0
49 62 -15 0
-8 50 -22 0
-36 5 70 0
35 -22 -56 0
71 23 64 0
62 -31 27 0
29 -25 -54 0
-30 -52 24 0
71 9 -30 0
-12 -2 -29 0
47 68 31 0
-59 -23 -44 0
-63 10 -60 0
37 -50 -61 0
-11 35 -72 0
22 13 26 0
-8 -25 -51 0
65 -29 70 0
71 67 22 0
-7 -40 56 0
-64 -59 -9 0
49 -15 -46 0
-13 -55 -58 0
12 34 -23 0
34 -14 21 0
-25 41 60 0
48 -5 -9 0
52 -53 24 0
1 -43 63 0
-4 32 -28 0
-65 -69 4 0
-16 -55 37 0
-47 69 -28 0
3 -7 -53 0
3 -60 49 0
59 51 -40 0
-45 63 -15 0
52 -19 18 0
22 -52 -72 0
57 36 41 0
-25 56 -59 0
52 -17 11 0
-55 -70 50 0
11 -4 1 0
44 24 -16 0
-8 -32 -43 0
60 41 -30 0
4 -28 40 0
53 31 -23 0
-49 -67 -6 0
-41 -58 -18 0
54 50 -61 0
57 -13 24 0
-28 7 -15 0
56 2 72 0
67 -69 -42 0
24 -7 42 0
-34 3 29 0
-45 -26 -16 0
-53 56 23 0
-64 45 -6 0
-38 -27 -45 0
62 11 -12 0
52 -2 -53 0
-4 64 68 0
34 7 -56 0
43 50 -19 0
21 28 -20 0
-75 -3 -26 0
-54 -31 19 0
9 -70 18 0
-47 -26 48 0
-24 -64 6 0
-12 34 -21 0
9 35 -13 0
18 64 -22 0
47 11 -74 0
59 42 -41 0
-2 15 23 0
23 -52 -26 0
-60 52 1 0
41 27 67 0
-60 -54 -16 0
-13 39 -53 0
-38 -27 54 0
47 -40 51 0
62 4 -75 0
-45 -9 3 0
2 -19 -68 0
51 48 -46 0
42 -52 19 0
5 68 -16 0
-54 -46 -27 0
-62 56 -43 0
-53 65 74 0
9 -49 -1 0
1 17 68 0
15 -47 62 0
21 46 -62 0
74 4 11 0
-9 -60 5 0
-37 -59 61 0
64 5 -45 0
-23 71 -64 0
47 25 49 0
50 -4 2 0
-17 -3 -61 0
19 21 68 0
-10 27 7 0
17 15 -40 0
37 33 20 0
22 -66 -1 0
-44 25 45 0
29 -48 -14 0
35 -72 -18 0
10 63 -39 0
74 -31 57 0
64 -15 -22 0
15 -65 -39 0
50 -70 -73 0
-49 34 12 0
-64 38 44 0
11 -16 69 0
-40 75 -57 0
8 2 19 0
-62 28 -31 0
72 -22 -21 0
-37 -7 52 0
-4 -5 -38 0
-6 -69 68 0
33 51 17 0
-2 -72 -24 0
36 43 8 0
-58 21 -18 0
-68 -57 -75 0
-20 -10 62 0
-21 -38 -75 0
36 47 37 0
-51 -68 6 0
1 -15 -5 0
20 57 -27 0
12 -74 -2 0
22 31 70 0
9 21 70 0
-51 -75 -67 0
-14 -22 36 0
-7 -70 14 0
33 -39 37 0
8 42 -44 0
-60 -14 -44 0
74 38 -30 0
-13 61 16 0
55 -4 -17 0
-26 -24 39 0
50 -75 -33 0
-9 -55 -66 0
-58 -61 -18 0
-42 -5 8 0
-4 -19 62 0
-25 -53 -72 0
75 42 63 0
50 -51 -41 0
74 40 -17 0
3 -11 -22 0
24 75 -29 0
4 46 -74 0
-20 -43 -16 0
41 -52 -8 0
-43 -28 -58 0
51 13 52 0
24 -9 -8 0
-2 46 4 0
42 -13 -37 0
-20 -40 -35 0
-40 18 61 0
4 -73 -5 0
-6 73 51 0
33 -50 -14 0
60 6 28 0
46 -58 -42 0
-49 -30 54 0
41 22 -49 0
35 64 -63 0
-46 -7 44 0
-15 -61 47 0
19 74 -60 0
-72 18 -20 0
-13 62 46 0
52 30 -64 0
72 -75 50 0
4 -52 -46 0
18 -37 53 0
56 -3 -36 0
19 59 -11 0
-74 -61 -29 0
38 9 42 0
-45 -15 34 0
-63 70 32 0
-48 -54 -67 0
20 13 50 0
35 39 -26 0
71 23 41 0
-64 -37 -67 0
33 8 -10 0
-45 -75 30 0
70 -18 13 0
-11 -5 -10 0
49 -64 15 0
43 -51 24 0
27 72 -18 0
47 -16 2 0
-44 68 -66 0
-75 -19 -45 0
-65 7 9 0
48 -30 -41 0
2 -75 21 0
23 9 -24 0
15 -37 60 0
-52 33 11 0
39 -16 -44 0
-31 50 -46 0
-5 41 33 0
-37 60 38 0
17 -64 38 0
20 -60 4 0
-53 -58 69 0
42 -21 57 0
-39 22 11 0
-65 -41 -23 0
22 8 -65 0
-24 -3 64 0
-60 43 34 0
5 20 -55 0
-5 40 9 0
45 21 -5 0
74 45 50 0
-18 -70 -71 0
-30 -15 64 0
70 39 4 0
40 12 -38 0
67 -64 50 0
13 -57 59 0
57 -34 -47 0
7 -3 -43 0
32 19 -11 0
-27 30 41 0
33 -25 -73 0
-16 72 -66 0
20 45 -7 0
58 -63 -29 0
-28 71 23 0
-39 -64 -9 0
10 -21 -18 0
-47 -9 18 0
-39 -23 26 0
16 42 13 0
67 65 -35 0
63 -68 -1 0
45 -1 65 0
-38 -6 -58 0
55 74 65 0
