c Coffinhead hard-core n=75 seed=2 ratio=4.0
p cnf 75 300
73 -17 59 0
-13 63 -44 0
30 72 54 0
-62 45 -57 0
-56 -25 -53 0
-64 9 -45 0
24 -73 -19 0
24 -18 -67 0
-24 -1 12 0
-67 -21 54 0
-36 9 -29 0
51 -16 -32 0
-53 -59 60 0
-16 12 35 0
68 4 74 0
29 -75 -28 0
10 -23 -62 0
41 -46 68 0
-41 -61 -64 0
67 20 2 0
70 4 -50 0
20 3 56 0
-55 -3 -74 0
-28 53 -71 0
42 -5 40 0
-12 -17 -69 0
-30 43 62 0
-70 37 -32 0
67 -26 2 0
-51 -1 34 0
39 45 75 0
-61 -31 -35 0
69 7 -34 0
-51 39 69 0
-7 38 6 0
69 18 38 0
6 -11 -19 0
-19 -67 -16 0
-38 48 -47 0
-65 -69 -68 0
-40 -45 29 0
36 -30 7 0
14 -16 30 0
72 -42 11 0
-46 -28 -55 0
61 -1 -39 0
-45 17 52 0
74 11 47 0
45 7 -67 0
-53 27 10 0
41 43 -38 0
49 -48 -73 0
-57 55 34 0
-14 24 -8 0
67 -44 11 0
-29 -53 62 0
27 1 63 0
46 -36 -45 0
-50 -46 -12 0
-8 66 6 0
21 -35 6 0
-54 -72 -52 0
-7 25 -35 0
14 -74 -41 0
71 69 -52 0
31 -43 -40 0
-74 12 -28 0
14 -31 18 0
41 21 33 0
34 56 26 0
11 24 -18 0
50 31 32 0
-66 -35 -19 0
-26 -23 -38 0
-66 -24 -59 0
51 25 -57 0
48 -14 -40 0
-29 32 75 0
39 31 -55 0
63 43 -54 0
-72 73 -51 0
21 -74 -43 0
-55 -28 46 0
66 60 -59 0
-29 10 25 0
-47 17 -58 0
-4 -13 -70 0
47 -42 37 0
28 -7 43 0
-10 59 12 0
-56 -66 -38 0
-11 36 -46 0
-18 -57 -14 0
1 -37 63 0
-49 -61 74 0
9 48 -23 0
-70 -66 -72 0
-54 -65 39 0
63 22 -74 0
-25 -55 74 0
22 -18 54 0
-63 23 -17 0
-70 -8 -60 0
-72 -59 -39 0
-2 -43 19 0
12 -8 18 0
-65 23 -35 0
-66 46 -3 0
-17 -25 42 0
49 -63 -44 0
-18 71 -63 0
-12 -53 32 0
50 -19 44 0
-18 37 -4 0
-1 47 34 0
-66 25 -9 0
-32 75 8 0
15 -32 17 0
5 -66 -10 0
-16 15 42 0
50 -18 22 0
65 -61 6 0
15 -32 -65 0
-16 -13 -7 0
21 49 -66 0
-70 9 -39 0
12 -47 16 0
-10 49 -54 0
-19 -52 47 0
46 4 -16 0
-17 -13 -61 0
-24 -31 -15 0
-34 51 -22 0
37 -61 19 0
17 7 39 0
28 -50 -64 0
31 -41 -20 0
23 -8 -54 0
45 69 -16 0
-68 -20 -44 0
53 -17 37 0
-38 45 33 0
-67 -27 -66 0
53 -38 45 0
21 -32 -53 0
-55 2 -35 0
-67 -47 -32 0
-18 -31 46 0
4 58 21 0
25 24 -71 0
21 23 43 0
-45 -17 -15 0
-73 -8 47 0
-6 68 22 0
-59 -10 69 0
41 27 -66 0
-36 44 -28 0
-47 -18 -43 0
-56 35 -16 0
8 -70 51 0
-65 2 -70 0
-21 -37 32 0
-37 39 -27 0
-5 -15 -25 0
55 32 36 0
-61 -39 -41 0
-2 38 17 0
-27 -9 -54 0
62 10 -73 0
-56 -64 28 0
62 68 28 0
56 -53 -47 0
60 12 32 0
-17 -70 20 0
73 5 18 0
-52 15 -70 0
-50 -63 -62 0
29 -70 30 0
9 -65 71 0
36 58 -45 0
-54 58 -63 0
-28 65 64 0
-68 -25 58 0
58 -22 28 0
27 -22 14 0
-11 37 -33 0
-44 52 -46 0
-41 17 -23 0
-48 24 25 0
56 -16 -20 0
9 -12 -65 0
-65 -38 4 0
-2 -7 -56 0
13 5 -69 0
11 4 -3 0
5 71 36 0
66 -13 -25 0
71 26 -47 0
69 14 -2 0
-73 75 4 0
-6 1 -72 0
38 68 5 0
-59 45 7 0
-6 -46 -59 0
-9 37 39 0
-62 -46 68 0
-32 -37 5 0
-28 -47 57 0
-23 -71 -20 0
-15 -40 41 0
38 -10 15 0
67 62 40 0
-29 33 -62 0
-54 -22 -63 0
40 -29 -36 0
-71 -17 -33 0
-3 73 58 0
39 -66 -35 0
-10 60 -1 0
14 -19 43 0
61 5 -31 0
-24 15 50 0
-46 69 38 0
29 -50 21 0
-7 -53 26 0
34 -39 37 0
-1 23 69 0
6 -26 55 0
-37 10 72 0
-46 -1 -56 0
47 29 -70 0
-67 25 17 0
-41 -6 43 0
8 -9 -32 0
21 -66 -41 0
-47 -44 -41 0
-11 -74 -75 0
62 20 38 0
-21 14 45 0
19 63 -35 0
-69 26 19 0
37 30 74 0
57 -62 -4 0
39 13 -12 0
41 66 45 0
53 50 11 0
-32 -20 59 0
8 7 11 0
-19 69 55 0
-16 -24 74 0
10 -29 60 0
49 -15 -5 0
-4 57 -74 0
-41 4 -20 0
-40 -50 -68 0
-46 -30 -58 0
49 -14 -35 0
-27 -59 5 0
20 -10 53 0
65 -46 -69 0
58 -75 -43 0
47 32 -68 0
9 -37 -72 0
-31 -30 -46 0
54 -60 -13 0
41 -43 58 0
-17 -69 -14 0
-13 61 -70 0
8 -37 34 0
63 -46 -56 0
51 -64 -54 0
-6 -74 -34 0
-47 20 51 0
73 17 4 0
74 24 -56 0
38 17 -53 0
-64 65 -55 0
-9 30 39 0
33 -44 -53 0
25 37 65 0
-7 -24 -33 0
-50 69 -1 0
23 32 75 0
12 69 -60 0
-34 37 -9 0
69 -5 33 0
41 50 -63 0
-59 -51 33 0
-60 -29 43 0
-43 -11 -55 0
28 14 -12 0
-58 -48 44 0
23 -39 -34 0
5 16 43 0
-6 -44 -19 0
-26 -6 61 0
-44 27 32 0
3 -8 -62 0
62 -9 75 0
22 -13 -30 0
