c Coffinhead hard-core n=75 seed=18 ratio=4.0
p cnf 75 300
49 48 -67 0
-16 65 70 0
11 -53 -48 0
-13 7 -73 0
-61 56 -50 0
75 14 41 0
7 -64 13 0
38 -28 30 0
-51 -62 -75 0
71 -29 -66 0
59 69 2 0
71 -66 -28 0
68 52 70 0
22 14 38 0
23 -28 57 0
10 -41 -75 0
61 14 41 0
7 -9 -30 0
-40 -65 2 0
-45 -8 -11 0
-33 -14 49 0
11 67 -34 0
-13 75 41 0
59 25 7 0
56 31 -55 0
-72 -9 45 0
26 -21 -25 0
4 -68 -9 0
4 53 -49 0
25 19 -26 0
9 54 13 0
24 -74 4 0
37 59 -4 0
67 8 -74 0
-12 -21 17 0
43 4 6 0
-52 -16 51 0
-55 27 71 0
-33 -73 55 0
-40 -71 -37 0
67 52 -27 0
-75 -55 31 0
-25 14 7 0
-48 6 -37 0
-57 -70 -21 0
3 50 -33 0
-11 -57 61 0
-32 -61 65 0
39 55 72 0
-48 2 -65 0
-43 -63 56 0
28 26 67 0
10 58 45 0
-52 -67 -26 0
-40 -30 62 0
-41 26 -36 0
-7 -60 70 0
-14 10 65 0
61 -2 -36 0
-38 -56 72 0
7 -25 -24 0
18 42 6 0
-14 -48 -33 0
10 -37 -17 0
61 57 56 0
22 50 72 0
54 -18 60 0
27 13 -69 0
29 75 -48 0
63 -60 30 0
-40 49 52 0
20 42 -69 0
42 -51 63 0
63 59 16 0
-71 43 68 0
37 -36 -75 0
-55 30 25 0
65 -39 61 0
16 75 69 0
46 -75 54 0
-67 12 -58 0
10 -12 -30 0
-55 -26 -61 0
75 17 13 0
-53 -65 -70 0
-46 -2 -6 0
38 -65 1 0
20 -30 46 0
-21 -22 -64 0
58 -11 -44 0
-4 12 59 0
37 -36 46 0
5 -9 -61 0
8 -39 -20 0
-68 -40 39 0
53 -71 -31 0
22 -21 -37 0
66 40 -25 0
17 61 -49 0
-67 -58 37 0
-68 31 62 0
61 -8 -16 0
15 1 66 0
32 -41 -37 0
54 -49 -46 0
40 47 -29 0
-63 75 3 0
72 40 9 0
25 -74 6 0
-29 2 67 0
45 -44 -20 0
36 39 -29 0
-60 -19 -20 0
-9 -36 -53 0
51 -62 -54 0
-30 43 31 0
39 -36 -52 0
33 43 -49 0
16 -13 65 0
63 39 23 0
-28 -53 -74 0
-26 -4 46 0
-65 31 -54 0
65 -64 -73 0
10 -71 55 0
-49 64 -26 0
-55 -17 -66 0
-61 -26 -45 0
-63 -40 64 0
-56 -18 -25 0
-47 39 53 0
9 14 29 0
59 55 -47 0
-49 21 4 0
-64 -51 -9 0
49 48 -11 0
44 48 38 0
-2 4 -54 0
-24 27 -23 0
4 -29 -18 0
-51 44 67 0
48 23 -52 0
60 -5 -41 0
54 42 -29 0
-30 -65 70 0
-35 38 -42 0
73 -6 30 0
41 -14 -7 0
47 64 53 0
30 -28 -60 0
55 22 -5 0
70 60 -48 0
31 -7 41 0
-55 -37 -56 0
-36 -63 -25 0
20 -48 71 0
59 -6 73 0
3 29 -16 0
-14 -68 -13 0
-66 52 -71 0
-70 -22 18 0
-59 -64 5 0
-8 75 60 0
-51 58 8 0
20 -35 -2 0
31 34 4 0
10 64 -72 0
62 -61 67 0
17 -6 62 0
38 -69 -16 0
-7 -49 24 0
64 -20 46 0
-48 66 3 0
27 47 -20 0
68 -23 -58 0
3 37 -72 0
-36 -50 6 0
2 -3 -7 0
31 -41 43 0
-17 25 -69 0
13 20 27 0
15 59 13 0
1 -58 -12 0
72 -75 -11 0
-63 -25 -15 0
6 -60 34 0
62 44 28 0
-25 -74 21 0
-18 -57 -10 0
-42 50 -52 0
72 -32 38 0
67 63 -10 0
13 19 47 0
56 -2 -11 0
-48 -24 -44 0
-60 -31 12 0
1 46 -43 0
16 -41 -12 0
59 8 55 0
17 -54 9 0
-68 -25 -2 0
48 -57 7 0
24 19 42 0
74 -61 -68 0
60 -1 -64 0
-57 11 34 0
66 -32 20 0
-15 69 30 0
-43 -39 -30 0
-6 -1 -73 0
-42 -32 -55 0
-69 71 55 0
-9 31 34 0
-20 -34 69 0
47 -11 42 0
62 53 72 0
-49 -42 -64 0
67 51 12 0
44 51 -72 0
24 72 -2 0
22 -8 62 0
36 10 -19 0
72 -74 39 0
2 -47 -33 0
54 74 28 0
-31 -18 21 0
30 -14 25 0
-19 43 -13 0
2 38 26 0
-59 -1 41 0
-27 70 39 0
-13 23 -65 0
-20 69 -66 0
15 45 31 0
14 5 -3 0
-30 53 -28 0
36 6 -15 0
42 51 -70 0
-25 -65 -38 0
-25 14 41 0
8 -15 -13 0
-45 69 -59 0
-63 53 29 0
4 -21 30 0
-12 -51 -67 0
-33 2 -32 0
-20 67 61 0
23 18 -58 0
18 6 41 0
-39 46 61 0
31 40 -28 0
-28 -56 -8 0
-4 11 -15 0
8 -2 41 0
-69 43 -32 0
-60 57 -48 0
46 67 -35 0
-59 -31 13 0
41 73 -40 0
2 6 50 0
4 -34 -40 0
-35 27 -60 0
-26 4 48 0
-1 -64 -9 0
22 -74 -47 0
10 68 22 0
-7 32 -25 0
31 -48 16 0
-58 70 21 0
20 -58 -10 0
15 -42 28 0
40 -49 -10 0
72 27 -55 0
3 -12 -64 0
-35 7 -28 0
5 -61 -69 0
11 38 -4 0
-43 -11 -5 0
75 -23 39 0
4 -61 11 0
7 -45 13 0
26 -32 -75 0
-4 -66 3 0
-59 18 53 0
14 43 20 0
33 64 1 0
18 33 54 0
-19 30 67 0
15 -34 49 0
65 -39 19 0
10 46 37 0
54 -4 22 0
-57 4 -7 0
71 -34 43 0
34 2 69 0
33 -55 -5 0
20 -58 21 0
-27 19 8 0
-46 -25 -38 0
50 -68 33 0
