c Coffinhead hard-core n=75 seed=33 ratio=4.0
p cnf 75 300
64 25 30 0
-14 36 -38 0
-62 60 61 0
23 8 -13 0
12 5 -46 0
-17 20 -12 0
4 -67 19 0
-37 -52 -51 0
-43 13 -28 0
-26 -58 74 0
32 -49 42 0
-5 1 -36 0
-26 53 6 0
-15 70 12 0
-5 -36 30 0
13 -67 50 0
-11 -55 61 0
42 23 -39 0
-3 -58 -29 0
11 54 65 0
1 -18 -36 0
-61 -15 1 0
-42 -37 16 0
-16 -6 -73 0
-6 -13 -3 0
50 -9 71 0
-45 -44 47 0
-22 54 -70 0
-59 -1 38 0
17 42 18 0
-46 -4 -30 0
-66 31 67 0
-57 52 72 0
-41 -38 59 0
-51 -7 35 0
29 -42 -33 0
-36 52 -7 0
4 67 -44 0
42 3 -48 0
-17 45 54 0
54 20 41 0
-29 2 60 0
70 6 -8 0
-30 -43 -72 0
-30 -57 -39 0
68 56 24 0
-61 16 12 0
52 -53 -68 0
52 -23 -65 0
-10 21 5 0
-16 21 38 0
17 30 -60 0
34 -52 49 0
-43 1 73 0
73 27 -8 0
-52 15 -71 0
34 8 17 0
-12 -73 24 0
-51 -42 70 0
-4 31 35 0
-5 -51 -2 0
-20 -63 36 0
34 18 -37 0
39 25 -74 0
52 5 -39 0
-12 69 -9 0
7 -45 -49 0
45 48 -55 0
-53 69 -65 0
-61 15 -26 0
6 -24 -48 0
-15 -4 -58 0
-48 -21 -23 0
19 -74 -55 0
-19 -3 -1 0
27 -61 39 0
-36 -75 -2 0
32 40 12 0
-56 -71 -11 0
70 19 51 0
70 64 27 0
-58 13 -56 0
57 -43 -31 0
63 12 -49 0
3 49 43 0
-29 -2 -5 0
-54 -70 21 0
-31 40 39 0
-65 -34 25 0
-39 -1 49 0
-21 -23 43 0
-22 -14 45 0
-22 -3 -51 0
-63 27 -14 0
68 40 -63 0
-24 46 -9 0
-13 -53 46 0
-75 -22 -21 0
-54 69 2 0
-5 65 -15 0
-68 -62 -29 0
-21 9 -20 0
8 44 37 0
1 75 23 0
41 48 33 0
-62 48 -23 0
17 -5 20 0
-39 -73 -30 0
50 -45 -65 0
71 -49 -56 0
-71 59 52 0
-50 -49 42 0
54 56 52 0
-73 64 -66 0
52 -16 -9 0
52 -29 -75 0
1 -8 46 0
-53 -68 -71 0
51 -57 -40 0
-71 11 2 0
-8 -31 -55 0
62 -68 21 0
34 47 -72 0
-68 32 27 0
-55 66 -10 0
60 -75 -55 0
47 -16 50 0
35 48 -70 0
5 -50 38 0
-32 8 -65 0
1 -57 62 0
-40 -46 -26 0
-64 -70 -19 0
-40 -35 69 0
-42 -46 -32 0
-66 62 64 0
56 60 2 0
-54 35 45 0
17 38 -50 0
45 -38 -1 0
8 -51 69 0
-32 43 73 0
-26 -9 28 0
6 -46 13 0
-55 8 50 0
10 -65 -53 0
7 21 12 0
23 29 67 0
30 13 27 0
-29 22 33 0
-29 -59 74 0
43 55 6 0
-9 27 59 0
-32 -19 73 0
46 -17 13 0
-48 -26 72 0
-56 -8 36 0
10 -30 -64 0
60 -66 -58 0
67 -64 -35 0
-39 -69 68 0
-57 -72 -51 0
73 -53 -9 0
13 -37 -51 0
-73 -12 13 0
5 46 -37 0
48 -3 -33 0
-22 -4 58 0
51 38 53 0
-27 16 -68 0
-32 -13 -42 0
-15 -44 -19 0
-2 -62 -34 0
14 56 43 0
23 30 -32 0
52 -15 8 0
1 -3 29 0
68 14 31 0
-43 -15 23 0
-32 21 36 0
-71 -58 25 0
-29 12 -6 0
-31 -6 -59 0
-75 -2 49 0
-38 58 -31 0
-14 -9 -30 0
47 -50 48 0
22 7 13 0
-38 11 74 0
34 59 -29 0
-75 -2 -31 0
-58 -39 25 0
-54 -26 36 0
73 16 -58 0
9 24 55 0
-32 42 17 0
18 -28 16 0
42 -60 68 0
-31 12 -16 0
-51 56 -24 0
29 2 50 0
17 -48 -23 0
-71 3 32 0
20 69 -23 0
-15 65 -31 0
-11 -38 -9 0
73 -45 6 0
-64 54 -36 0
59 26 35 0
27 -21 -70 0
-31 -45 -62 0
-40 55 -41 0
68 -71 -30 0
-50 -72 65 0
-41 48 -23 0
4 -38 23 0
9 41 16 0
-74 -1 52 0
-32 -44 -48 0
67 -17 -10 0
69 30 18 0
53 38 -30 0
-2 -44 -27 0
13 9 -72 0
41 -34 62 0
61 -33 31 0
41 -68 29 0
-30 -59 -15 0
49 34 -47 0
24 9 8 0
22 2 -28 0
-28 -56 -21 0
-9 -56 -74 0
-10 -63 -6 0
-22 -9 -47 0
-19 45 54 0
51 -24 5 0
12 -13 3 0
7 72 10 0
-11 20 -48 0
-8 9 19 0
73 18 -52 0
-21 45 9 0
-25 -33 38 0
36 -51 -37 0
-63 -21 -48 0
-15 51 -30 0
69 8 -66 0
-1 54 55 0
-55 70 -36 0
41 -4 -46 0
5 54 73 0
45 -47 -48 0
-71 -25 19 0
-21 11 -25 0
56 -42 35 0
-45 -50 15 0
-35 57 -16 0
-10 -21 -60 0
13 32 -11 0
-36 -42 -40 0
-26 -63 1 0
10 -5 56 0
-6 29 -54 0
-53 8 -32 0
-42 -7 14 0
49 -23 -12 0
-49 -21 42 0
-19 24 54 0
2 -20 -68 0
48 38 -44 0
-50 -28 16 0
-17 46 -35 0
34 -45 -49 0
44 -72 41 0
-74 -14 66 0
35 -62 15 0
-7 -22 -44 0
-45 71 -61 0
-70 -42 -22 0
58 -12 -62 0
-52 16 -7 0
-32 -56 67 0
-64 22 -42 0
69 -18 73 0
-2 -72 36 0
-28 62 34 0
9 -42 68 0
31 -32 49 0
-7 66 -38 0
40 14 -72 0
41 -26 60 0
18 -22 46 0
-27 73 5 0
26 52 -44 0
50 -10 -18 0
-48 -25 56 0
-59 -73 -42 0
29 -52 34 0
-24 64 -25 0
