c Coffinhead hard-core n=75 seed=30 ratio=4.0
p cnf 75 300
31 38 -60 0
10 43 45 0
63 -48 69 0
-73 52 -33 0
14 -75 -37 0
-20 -60 -10 0
-9 -66 -6 0
-68 46 14 0
51 26 -19 0
26 24 -4 0
-5 -37 -41 0
46 -49 74 0
-66 10 24 0
-22 -54 -3 0
67 75 -50 0
-29 -4 23 0
-73 55 -42 0
67 -13 -39 0
40 -6 -41 0
-17 61 49 0
68 -13 -69 0
-25 54 -55 0
71 -47 44 0
74 41 50 0
-56 30 -48 0
-58 -29 -1 0
44 23 -65 0
-18 -49 21 0
-54 -15 40 0
15 18 14 0
14 -28 -50 0
13 -14 -37 0
50 -58 -25 0
73 14 -61 0
23 -56 39 0
-18 -9 -54 0
-75 -7 -29 0
64 -62 22 0
-15 52 -33 0
-52 50 49 0
-12 64 67 0
-60 72 -38 0
-24 44 33 0
64 29 67 0
9 7 -2 0
72 10 -15 0
-40 27 -6 0
-62 8 65 0
51 8 -17 0
-66 -67 -21 0
-15 35 -36 0
-55 4 75 0
19 28 23 0
49 -13 -9 0
-29 48 -41 0
-19 33 -46 0
53 42 13 0
-26 18 -15 0
-18 -22 24 0
-53 -72 32 0
35 20 74 0
-12 72 -41 0
27 4 42 0
1 -58 2 0
-64 16 11 0
45 49 -44 0
35 -42 -69 0
-35 -57 -33 0
-63 -53 -15 0
48 27 25 0
44 18 -6 0
17 -12 49 0
-3 69 53 0
2 -23 3 0
-5 -75 -74 0
7 -3 49 0
-43 59 74 0
-21 -26 3 0
-46 30 15 0
62 -7 75 0
-55 22 -48 0
53 -66 -70 0
8 73 -18 0
-46 13 29 0
-49 1 -22 0
-27 45 53 0
7 -57 -54 0
-30 17 -40 0
5 -36 16 0
-13 2 -65 0
-67 52 2 0
11 64 18 0
-58 65 -42 0
71 -29 -19 0
53 74 -56 0
-60 -27 44 0
-30 62 19 0
55 -6 -21 0
23 -44 -55 0
-66 74 25 0
4 -42 6 0
-62 -50 -56 0
3 -54 70 0
41 -59 -15 0
33 75 -39 0
-6 68 39 0
42 -62 35 0
33 36 -50 0
-47 -74 26 0
-24 -2 -31 0
-31 -72 65 0
54 -13 -69 0
-47 22 -48 0
-52 18 75 0
-46 70 -17 0
-71 -68 47 0
-48 55 -3 0
3 -54 59 0
-14 -36 -73 0
34 11 69 0
34 8 13 0
25 15 38 0
66 4 63 0
-64 31 43 0
-36 75 74 0
-37 -42 7 0
-6 -49 35 0
4 -37 -56 0
-60 29 15 0
-37 -23 51 0
-23 -65 57 0
5 61 -14 0
-56 49 65 0
-67 -35 60 0
-74 34 -65 0
36 -39 -59 0
-3 -1 6 0
-54 4 58 0
59 -57 16 0
-39 9 10 0
16 -47 -61 0
-74 -49 -18 0
3 -16 23 0
-54 1 64 0
21 65 -54 0
-31 54 55 0
-29 -50 -1 0
37 -30 54 0
-7 71 -4 0
45 59 31 0
-9 37 -51 0
-20 8 64 0
-65 -28 44 0
3 -37 -50 0
-51 16 -37 0
-73 -36 21 0
70 63 73 0
-34 44 60 0
18 27 -25 0
-39 30 44 0
-68 -48 35 0
-63 -57 -6 0
15 72 -55 0
27 -22 -73 0
45 -21 -71 0
-41 9 17 0
-36 -68 -20 0
-33 -38 -4 0
-10 -55 4 0
-15 -28 68 0
-61 2 -60 0
71 3 33 0
-63 52 9 0
26 45 27 0
-50 -21 -48 0
24 50 64 0
-15 19 68 0
52 -1 -2 0
17 25 6 0
40 5 48 0
-35 43 -32 0
-13 10 16 0
29 -66 -40 0
16 73 6 0
-44 -38 -65 0
55 -36 10 0
-9 75 -58 0
-15 10 -6 0
69 5 13 0
51 15 -30 0
-59 -14 -42 0
-51 -33 67 0
18 32 47 0
-69 -18 -19 0
30 -63 43 0
12 47 -24 0
-68 48 15 0
-40 44 37 0
69 65 -15 0
13 45 68 0
-35 73 54 0
42 68 -5 0
36 43 32 0
-33 72 -74 0
14 -46 -66 0
-60 -1 -62 0
68 59 13 0
16 12 -69 0
61 65 -38 0
65 60 21 0
-29 75 -18 0
22 44 62 0
-35 29 -26 0
50 -35 13 0
47 58 16 0
-18 -34 -9 0
4 24 -65 0
39 -47 -42 0
48 -8 43 0
65 -19 71 0
59 -44 -7 0
7 32 -63 0
-16 -62 -12 0
18 41 34 0
53 51 47 0
11 53 37 0
62 -3 -51 0
51 -66 43 0
53 38 15 0
9 -65 -6 0
-11 -19 -27 0
59 3 75 0
14 -13 -1 0
-13 57 5 0
-36 -4 62 0
-52 73 -72 0
16 67 60 0
-75 -54 39 0
56 33 -45 0
-14 -44 -3 0
-9 38 -43 0
20 39 28 0
66 63 46 0
-44 -43 -27 0
-65 -67 -63 0
70 -44 -33 0
10 -7 -11 0
-11 -16 2 0
70 12 -58 0
-20 72 -41 0
38 -47 5 0
-55 -72 31 0
63 -19 71 0
30 11 72 0
10 46 -19 0
68 63 -72 0
-2 -63 -47 0
36 69 -12 0
18 62 -60 0
70 12 -69 0
-71 -30 -54 0
10 -49 68 0
-38 -6 14 0
-27 47 -9 0
-74 -39 38 0
-25 -1 62 0
-72 -42 16 0
-17 5 4 0
5 74 61 0
5 41 -52 0
25 24 -44 0
-16 -71 -73 0
-66 -51 8 0
38 5 49 0
16 31 -62 0
-42 13 -44 0
-38 62 61 0
-16 33 30 0
22 11 39 0
-27 4 6 0
36 3 18 0
-10 -70 33 0
53 -33 -35 0
20 -37 43 0
-56 -25 49 0
31 43 -36 0
-72 6 11 0
-38 25 -33 0
71 -37 1 0
-40 15 -24 0
48 -74 -52 0
72 -35 73 0
51 59 -53 0
-49 -1 -43 0
17 39 -33 0
54 -4 72 0
35 14 20 0
-13 -21 -53 0
-24 18 2 0
59 -10 -65 0
