c Coffinhead hard-core n=75 seed=51 ratio=4.0
p cnf 75 300
-55 -59 -42 0
28 36 37 0
73 74 -8 0
29 60 -70 0
-16 62 -40 0
-7 -52 -48 0
-59 8 -10 0
62 63 65 0
73 -75 48 0
-21 58 -36 0
14 -29 52 0
-32 2 23 0
-16 41 -42 0
-67 60 -20 0
-69 35 -74 0
-39 -52 -12 0
10 20 5 0
-64 -56 27 0
-46 -47 24 0
-51 32 21 0
-27 1 56 0
-28 16 -3 0
-13 75 -63 0
-42 -47 -36 0
43 7 4 0
71 -55 -22 0
-74 35 4 0
-19 -44 -72 0
37 -58 8 0
-42 8 -5 0
-22 -35 59 0
9 21 -46 0
16 23 -70 0
-61 -75 57 0
-56 -53 -63 0
11 -56 59 0
21 22 11 0
-26 -9 14 0
56 -61 13 0
-24 66 26 0
15 -25 -45 0
-27 30 26 0
-46 60 33 0
65 -59 16 0
-35 -68 -63 0
27 -40 -53 0
-1 26 46 0
-26 -9 -73 0
-30 75 41 0
22 18 -26 0
-65 46 37 0
-11 -29 13 0
-11 17 -56 0
34 53 57 0
57 5 -6 0
31 61 3 0
11 70 40 0
8 -75 -70 0
9 23 50 0
-6 67 51 0
33 27 -23 0
-53 21 -38 0
-12 39 -70 0
42 -27 -74 0
63 -35 27 0
64 -23 50 0
-40 67 -39 0
-26 -56 8 0
-18 -35 69 0
-22 -21 -2 0
-35 -33 34 0
69 36 14 0
-42 45 -27 0
-64 53 55 0
65 -14 68 0
-5 24 39 0
-73 -54 39 0
-56 -42 67 0
41 -22 48 0
64 29 -69 0
-62 66 -57 0
-25 -21 29 0
-56 -44 34 0
-57 74 -61 0
54 31 -9 0
-68 -1 -19 0
52 4 68 0
-13 16 12 0
-32 21 -48 0
7 75 -55 0
-72 -61 71 0
3 6 65 0
30 -37 -61 0
-42 -36 67 0
44 -59 42 0
-31 -28 -73 0
64 54 -58 0
6 19 -75 0
-49 -57 -44 0
73 -2 17 0
-36 47 30 0
-67 -47 10 0
-25 -3 -27 0
-61 5 74 0
-74 12 -71 0
-32 56 44 0
-45 -26 4 0
65 40 -49 0
38 -17 -36 0
-34 2 56 0
-29 68 -31 0
-30 -47 4 0
-59 -51 -38 0
51 -66 -2 0
56 19 49 0
64 -6 31 0
43 56 29 0
20 -65 18 0
-37 -63 -43 0
40 9 -47 0
-33 -41 29 0
44 65 11 0
-3 -50 7 0
45 11 17 0
57 35 11 0
66 53 -21 0
54 23 -5 0
-42 17 -69 0
-22 71 -43 0
52 55 -62 0
-65 -75 64 0
61 74 3 0
4 33 72 0
33 9 -75 0
14 -20 26 0
24 -35 68 0
-32 -22 -54 0
48 -9 32 0
-67 -32 -62 0
-70 7 -65 0
25 -44 40 0
48 38 -58 0
68 43 -5 0
21 33 12 0
-52 44 24 0
24 28 -15 0
-15 54 71 0
5 -61 27 0
20 -32 64 0
-19 -68 -62 0
-71 -8 72 0
-43 -66 -18 0
-50 -67 -41 0
17 -10 -65 0
-63 -37 19 0
51 53 -35 0
41 -28 71 0
-38 -66 27 0
3 -57 43 0
-40 68 -43 0
35 -56 -47 0
70 31 36 0
-34 -16 9 0
49 -37 -52 0
-30 6 -59 0
11 19 -27 0
-11 66 -7 0
50 -15 9 0
66 69 -8 0
56 -54 41 0
26 55 -12 0
-54 -28 8 0
66 70 51 0
-15 32 23 0
-22 5 -16 0
61 -21 54 0
-75 52 -47 0
4 -66 40 0
36 -5 68 0
14 66 2 0
-41 39 6 0
14 1 -21 0
26 52 31 0
-48 13 25 0
52 -3 30 0
70 53 -50 0
-52 45 7 0
-21 72 -31 0
53 44 -75 0
65 32 -15 0
-14 -18 -65 0
47 44 64 0
-44 -24 33 0
-57 -30 5 0
-49 64 26 0
-65 -36 -42 0
-72 16 -23 0
7 26 -3 0
67 -18 19 0
-1 -22 68 0
59 -74 16 0
67 69 57 0
-63 -25 22 0
62 -18 -4 0
32 61 41 0
14 20 -45 0
33 -60 -56 0
-10 -51 -25 0
51 32 40 0
21 -41 64 0
73 -10 -15 0
50 49 -15 0
-36 -62 73 0
-18 63 -56 0
56 50 -74 0
31 27 -42 0
-29 -55 47 0
22 -69 73 0
45 -58 -24 0
-24 39 28 0
-11 -56 6 0
-21 32 -73 0
63 71 -49 0
-43 3 9 0
-47 7 17 0
28 19 74 0
-71 -27 1 0
-29 -63 75 0
49 15 66 0
1 13 17 0
-12 -41 36 0
69 28 -55 0
-62 -18 -6 0
72 -63 11 0
15 45 -37 0
66 25 -72 0
-68 -22 31 0
-65 47 55 0
-34 -30 -29 0
73 11 53 0
-6 -63 40 0
74 -35 40 0
-61 50 11 0
-62 -41 43 0
69 -1 3 0
-32 17 -40 0
47 44 -16 0
-59 44 -75 0
56 -51 44 0
-75 17 22 0
69 10 -54 0
-55 22 -65 0
54 12 69 0
-72 -69 -45 0
-48 -56 -9 0
69 -36 7 0
-56 20 63 0
73 74 75 0
-5 -29 51 0
72 -8 58 0
-16 -55 42 0
-64 -65 -37 0
-34 -35 43 0
-43 -25 -38 0
-5 -46 39 0
69 -73 -74 0
39 47 -21 0
10 -67 -17 0
60 -4 12 0
13 37 -22 0
-49 -70 -41 0
-73 39 -15 0
-69 -21 -2 0
19 -60 -32 0
-9 -16 61 0
7 -64 65 0
-24 -40 1 0
-61 69 -33 0
68 41 10 0
27 31 -49 0
15 -27 -64 0
-8 -33 20 0
3 -61 44 0
-74 61 -36 0
8 -38 33 0
-68 33 32 0
-21 -9 65 0
71 50 -62 0
-67 -70 -2 0
65 63 -32 0
60 -3 -8 0
-32 61 23 0
71 23 -40 0
39 31 -6 0
-6 -46 55 0
53 -7 -54 0
15 -63 61 0
25 -57 68 0
-67 -51 -57 0
1 -46 38 0
