c Coffinhead hard-core n=75 seed=19 ratio=4.0
p cnf 75 300
-66 -12 35 0
73 51 33 0
-40 -43 48 0
-34 -47 -35 0
-24 2 -13 0
-17 70 -63 0
19 -61 63 0
34 42 -56 0
14 -22 63 0
68 -33 -47 0
-61 38 -39 0
-61 -63 -6 0
6 22 -7 0
-63 12 -30 0
-56 34 70 0
-64 73 -55 0
-3 1 17 0
37 -75 -52 0
50 56 -62 0
41 -5 60 0
-11 -68 65 0
57 -48 -43 0
75 18 -26 0
-61 -5 16 0
44 13 -52 0
-61 -10 -57 0
-44 -31 -58 0
-10 -4 14 0
37 -63 50 0
-33 23 -61 0
19 44 -16 0
-6 -34 -30 0
47 1 4 0
26 20 3 0
-18 -2 -68 0
5 -42 -36 0
49 60 -58 0
-24 70 -11 0
42 -25 17 0
65 54 46 0
54 -34 -72 0
1 15 30 0
-69 -9 -38 0
-53 -4 75 0
2 25 50 0
-29 25 -61 0
-9 -32 73 0
16 31 63 0
15 50 29 0
6 63 -12 0
-67 -9 60 0
-17 43 -25 0
59 14 -27 0
-72 71 -33 0
38 -25 13 0
-24 -75 -40 0
-73 -45 24 0
39 -5 -15 0
-53 16 58 0
-70 -25 -39 0
30 -27 -47 0
8 22 -38 0
-9 55 -65 0
51 2 69 0
34 15 74 0
38 44 -37 0
1 -66 -70 0
-72 -31 34 0
-53 -72 2 0
66 62 69 0
-48 45 -47 0
66 41 28 0
-50 -33 35 0
14 11 3 0
-54 -27 57 0
53 -59 -50 0
51 3 -20 0
22 -48 35 0
-70 -64 -6 0
57 5 -49 0
30 -74 21 0
48 -34 74 0
3 41 -55 0
13 -58 -33 0
-42 -10 -19 0
50 34 -41 0
50 41 -74 0
16 53 -49 0
33 25 -17 0
27 25 32 0
-33 -30 46 0
21 75 -13 0
-31 -16 22 0
-15 -58 69 0
57 -50 64 0
2 72 55 0
-42 -26 56 0
-52 -49 47 0
-33 -56 -60 0
23 26 53 0
-5 51 -23 0
-65 62 60 0
71 -15 -68 0
-7 9 31 0
22 -72 -39 0
66 -56 15 0
-7 -19 60 0
60 56 -26 0
75 -66 49 0
-69 71 10 0
37 54 18 0
24 -31 -11 0
27 -41 -4 0
31 51 -74 0
4 -75 21 0
-10 -14 -58 0
-20 61 69 0
46 -53 31 0
58 -22 13 0
-57 -15 -68 0
-1 8 43 0
67 42 64 0
45 -10 57 0
13 -59 33 0
-8 35 -39 0
25 -11 38 0
-36 -20 -35 0
-34 -22 43 0
31 -7 -24 0
72 14 52 0
-11 -56 39 0
-27 46 -47 0
-25 -18 -10 0
-26 -56 -35 0
-20 42 65 0
43 -56 -11 0
-45 50 18 0
25 -61 47 0
4 -61 52 0
29 -52 70 0
-17 -45 60 0
61 -19 8 0
-13 52 -58 0
-72 -51 40 0
17 -29 38 0
74 -44 6 0
-36 63 -52 0
-31 61 3 0
47 17 -7 0
-15 8 -22 0
42 45 -56 0
71 25 -38 0
46 14 -21 0
-75 34 -27 0
-52 12 43 0
25 -6 -19 0
28 18 -8 0
-54 20 -46 0
-20 41 -11 0
56 17 35 0
34 73 -11 0
-35 37 -55 0
-16 -20 -26 0
-28 18 -53 0
-12 44 -64 0
67 40 -53 0
-19 -67 64 0
63 17 -26 0
-1 -2 7 0
-20 -44 33 0
-25 -43 -2 0
-5 45 -69 0
-48 -49 -55 0
5 -13 23 0
34 -30 -61 0
4 -62 50 0
-3 -16 18 0
12 -7 57 0
15 64 -21 0
-29 -75 66 0
-44 -37 -4 0
12 -62 -38 0
75 -21 39 0
12 73 9 0
-3 64 -6 0
38 -34 54 0
7 -52 45 0
-6 -14 18 0
13 -36 54 0
-51 54 -60 0
55 -34 -2 0
-11 73 -48 0
-73 -42 -15 0
-51 67 -52 0
39 46 -2 0
53 -15 -18 0
-72 51 -71 0
-16 -1 -18 0
30 -42 -7 0
-2 43 65 0
19 -42 -35 0
-7 -2 55 0
16 -22 31 0
1 -30 -50 0
43 -62 50 0
-64 18 -14 0
23 3 -75 0
-1 -70 45 0
31 -33 -29 0
44 39 -49 0
-44 -40 -45 0
21 67 -7 0
-68 -49 29 0
3 -51 -23 0
69 -33 5 0
-8 53 -39 0
-43 26 -57 0
13 32 -15 0
2 43 -34 0
-44 70 8 0
60 75 29 0
10 69 8 0
-27 55 65 0
-62 54 9 0
-73 -75 53 0
63 45 51 0
2 -42 23 0
-38 28 65 0
-34 -20 -63 0
49 -37 -57 0
-58 -2 12 0
-60 -12 -65 0
-36 -58 43 0
-26 -3 14 0
4 40 38 0
-14 67 -4 0
29 -34 11 0
55 -67 -65 0
-42 45 -66 0
-71 -72 34 0
52 -70 49 0
60 14 -56 0
37 59 20 0
-47 45 -9 0
-50 -60 19 0
-5 37 -58 0
16 65 32 0
16 30 -32 0
41 54 66 0
-65 -11 -27 0
-45 64 50 0
75 -40 -55 0
62 -7 -51 0
65 40 -48 0
-28 -33 64 0
44 -3 -72 0
10 62 -41 0
19 -16 -31 0
-34 3 39 0
59 -11 -21 0
17 1 30 0
-57 -54 42 0
45 8 -5 0
-9 -31 -24 0
-55 62 27 0
-46 52 54 0
-11 26 -19 0
63 -60 -46 0
-27 -75 -37 0
15 74 -3 0
-22 71 6 0
-55 -64 -46 0
71 32 -72 0
35 38 61 0
-25 13 -42 0
27 28 -15 0
17 5 4 0
-50 55 19 0
-41 57 32 0
-69 -50 -27 0
-66 37 -22 0
-69 -22 -8 0
-51 -6 8 0
1 38 18 0
35 -73 -2 0
61 -8 -24 0
-40 -22 -25 0
38 67 68 0
-9 70 1 0
46 65 12 0
25 61 62 0
-10 40 43 0
20 -71 58 0
35 64 -38 0
-43 17 -14 0
54 -43 16 0
-22 -71 -58 0
-10 20 33 0
-55 -19 6 0
19 -67 -46 0
