c Coffinhead hard-core n=75 seed=20 ratio=4.0
p cnf 75 300
-46 24 -18 0
72 -35 65 0
12 -28 39 0
18 -33 -71 0
-6 -25 -36 0
34 17 -73 0
71 -75 -74 0
14 -25 -34 0
31 41 -38 0
52 62 -33 0
56 -62 3 0
24 71 -53 0
-63 -17 36 0
42 3 43 0
-34 -65 -12 0
-67 35 8 0
-5 -74 60 0
41 21 40 0
59 53 -65 0
39 -57 -5 0
-41 48 64 0
42 -44 23 0
-50 -4 45 0
70 38 -9 0
-18 -65 71 0
60 -71 58 0
-11 64 38 0
69 60 -57 0
14 -21 44 0
-68 -55 -27 0
48 31 12 0
-72 -53 -66 0
-74 -58 27 0
72 68 40 0
-50 59 -27 0
43 45 16 0
64 45 54 0
54 -69 14 0
-16 10 -24 0
-7 -68 -54 0
18 -58 62 0
63 60 3 0
-11 -48 -70 0
7 47 34 0
-37 68 10 0
-46 68 -41 0
61 -58 -55 0
36 6 -27 0
-54 -45 58 0
48 -43 -18 0
-15 28 62 0
6 -22 32 0
-48 -37 -6 0
23 -33 -13 0
-24 34 2 0
-10 -50 71 0
25 9 -1 0
-59 -35 -73 0
35 8 -71 0
-73 -18 14 0
-74 -31 12 0
-54 2 47 0
-63 40 -62 0
-58 -38 -14 0
-19 52 18 0
-15 -26 -47 0
-44 61 -56 0
22 -19 -7 0
-70 38 6 0
-49 1 -19 0
75 6 1 0
-58 37 65 0
-58 -46 -22 0
-38 -26 59 0
-10 -19 -66 0
13 71 38 0
70 -21 63 0
69 70 37 0
67 32 53 0
-31 -3 -32 0
-33 43 68 0
-55 14 3 0
-61 -54 64 0
-9 -26 56 0
35 75 1 0
-36 -23 -41 0
63 -6 -72 0
49 8 61 0
-61 -28 25 0
17 -45 36 0
-40 13 -63 0
-18 40 10 0
-67 4 -26 0
-35 -51 25 0
-15 -39 26 0
74 54 21 0
55 -66 -58 0
-19 52 6 0
-14 -3 -40 0
4 -44 -13 0
-40 62 21 0
51 -22 31 0
-37 56 8 0
-52 6 25 0
-2 -11 34 0
2 -60 -6 0
-8 64 35 0
-31 67 48 0
-27 20 -28 0
-54 12 -64 0
-29 63 48 0
24 31 20 0
73 -9 -58 0
47 -73 -65 0
67 28 -2 0
-20 -55 48 0
-69 74 -10 0
-13 -68 50 0
46 22 -57 0
68 -67 18 0
-44 -23 -39 0
44 66 -57 0
-65 18 -3 0
67 -33 39 0
-45 38 58 0
42 20 10 0
21 1 -64 0
-34 15 43 0
15 67 -11 0
72 -9 -36 0
53 -17 29 0
-15 -3 -31 0
-52 -16 3 0
-58 -7 47 0
46 -66 8 0
-3 35 59 0
16 5 43 0
-69 -24 68 0
48 39 -7 0
51 9 -66 0
-68 -29 -32 0
43 -37 -33 0
-27 -5 -18 0
25 11 -29 0
5 -13 15 0
46 48 -18 0
-15 6 -41 0
41 -48 -34 0
-38 -9 45 0
-60 -53 35 0
21 -22 -63 0
32 -48 18 0
-63 56 35 0
40 -60 74 0
-49 33 17 0
-16 -65 -5 0
-27 -24 -9 0
-55 40 15 0
-42 -49 45 0
54 25 57 0
-70 64 -38 0
-74 57 40 0
70 55 37 0
-13 46 40 0
14 46 -67 0
-62 8 -70 0
-38 -33 -71 0
66 -4 73 0
27 69 10 0
-27 29 59 0
18 47 24 0
68 -49 -40 0
-34 -53 -68 0
37 -17 -33 0
23 5 35 0
34 -59 -20 0
54 -38 -73 0
42 14 32 0
-31 36 25 0
64 -66 -59 0
23 58 -41 0
45 -51 -27 0
47 19 66 0
-37 -12 -41 0
-19 -67 28 0
-26 -39 22 0
-25 -35 23 0
-2 -26 -49 0
70 -31 41 0
-40 -66 -13 0
-24 55 26 0
-41 9 -22 0
20 71 -50 0
-9 -37 20 0
10 -40 63 0
-73 55 -72 0
38 -12 63 0
67 26 71 0
43 59 20 0
-3 -54 -20 0
52 15 -33 0
-32 60 -37 0
-62 -15 59 0
54 -11 -34 0
-50 30 64 0
11 -65 -27 0
19 66 53 0
3 -12 -66 0
-28 20 31 0
-48 47 3 0
26 16 67 0
-30 55 -51 0
60 -26 -9 0
61 -63 30 0
44 75 -1 0
-47 -34 70 0
71 39 69 0
-21 49 25 0
-45 -49 75 0
59 -65 -21 0
28 8 -26 0
47 33 12 0
41 72 38 0
53 27 50 0
-18 -2 -53 0
-14 -13 8 0
-64 -8 -7 0
-38 74 60 0
-2 -73 -44 0
-15 -45 -70 0
-55 -67 -39 0
-6 -52 28 0
8 14 -72 0
73 -26 60 0
-5 -27 4 0
-60 -21 58 0
49 22 10 0
53 63 -6 0
-38 30 13 0
53 -61 18 0
34 -30 -36 0
74 -71 -44 0
68 54 -51 0
8 75 21 0
19 60 -52 0
-31 -64 -26 0
-15 68 -23 0
-54 58 41 0
-60 74 -29 0
8 56 -33 0
17 -28 -74 0
-10 9 -44 0
-32 44 25 0
-70 4 59 0
-9 69 42 0
8 16 -59 0
15 33 -1 0
41 34 -67 0
67 20 -14 0
10 19 -43 0
-2 59 -16 0
-22 -28 45 0
72 38 -40 0
22 -15 31 0
6 -46 56 0
-10 -51 -59 0
-41 -27 -13 0
1 -50 30 0
-38 63 -45 0
-58 21 64 0
68 58 48 0
36 58 68 0
54 65 -59 0
16 8 49 0
72 68 64 0
45 -39 10 0
4 72 73 0
62 -63 70 0
41 43 -45 0
-21 70 -8 0
-24 37 10 0
64 6 48 0
12 -65 -46 0
-36 -22 -14 0
-42 54 36 0
-41 -65 -72 0
-73 9 64 0
-47 68 -20 0
-6 12 44 0
12 -5 28 0
30 20 -61 0
-66 -30 58 0
-35 -16 -59 0
-29 59 28 0
16 -38 -74 0
75 -50 45 0
-73 12 -54 0
6 -41 46 0
49 22 1 0
-26 42 51 0
