c Coffinhead hard-core n=75 seed=52 ratio=4.0
p cnf 75 300
-73 71 2 0
21 -51 74 0
-54 33 -55 0
-14 63 -39 0
-15 -55 -11 0
35 -58 -57 0
-39 38 6 0
52 -6 -12 0
-14 70 46 0
55 53 16 0
-34 4 -53 0
48 -21 37 0
3 65 -71 0
-54 51 37 0
14 73 -71 0
2 -49 1 0
-24 55 7 0
-41 -74 -61 0
-56 10 -8 0
-13 48 21 0
-63 -28 -70 0
-43 -56 29 0
43 -26 56 0
-27 62 71 0
-25 27 51 0
17 -4 20 0
-21 -48 63 0
-28 17 -1 0
44 40 -25 0
-6 -37 -57 0
73 -33 18 0
-59 -37 -19 0
-13 2 -22 0
74 -65 -60 0
12 9 -44 0
31 18 -62 0
32 59 -58 0
16 56 -7 0
-2 15 -25 0
-57 22 -13 0
-62 74 -8 0
-55 46 -35 0
50 73 58 0
15 -75 -17 0
-29 -60 -43 0
60 -3 17 0
46 56 -24 0
24 47 -74 0
-43 -59 -74 0
-46 -13 -23 0
52 35 -7 0
37 -60 -4 0
14 28 12 0
-68 -40 -65 0
42 16 44 0
-24 8 -37 0
36 50 -53 0
9 67 -29 0
-64 12 -25 0
67 2 65 0
-66 14 -10 0
-30 -68 -31 0
-54 -17 73 0
34 38 -43 0
-57 -26 25 0
-44 69 -38 0
72 -1 48 0
49 20 -58 0
-4 -52 54 0
39 51 -75 0
40 -33 -10 0
32 75 -1 0
-61 13 59 0
-20 70 -30 0
-8 -40 14 0
26 8 -25 0
-45 -20 57 0
-15 68 69 0
-17 8 50 0
67 -38 21 0
3 -17 32 0
6 -70 -23 0
50 36 -24 0
63 -75 -55 0
31 -30 50 0
9 61 -37 0
-9 63 -3 0
-24 7 58 0
-44 13 46 0
-1 -51 13 0
32 63 -18 0
-68 -61 -39 0
-39 32 72 0
-30 -12 64 0
-74 -60 -70 0
59 37 74 0
64 -8 -38 0
-72 66 27 0
61 -62 -28 0
36 -42 61 0
-39 41 61 0
-45 75 71 0
20 61 32 0
8 -74 47 0
20 46 45 0
3 -40 49 0
-57 -16 27 0
40 -65 24 0
12 -74 62 0
68 -26 17 0
-28 16 59 0
-12 -61 72 0
-4 -72 12 0
-63 -47 12 0
18 -12 39 0
-69 16 4 0
62 -19 -47 0
-6 54 32 0
22 42 -38 0
50 56 -11 0
14 10 -39 0
-53 26 65 0
-58 -3 -74 0
-34 54 -45 0
-20 -73 -70 0
33 -49 73 0
-59 49 -25 0
39 -51 -6 0
-15 75 -70 0
51 -34 -43 0
22 27 44 0
68 64 -44 0
-52 54 -7 0
45 59 55 0
23 -6 61 0
-43 -22 62 0
10 -33 32 0
-10 61 -42 0
56 60 -49 0
-44 -29 -50 0
-3 74 -19 0
47 -43 -32 0
-64 -70 -48 0
58 10 23 0
-25 74 18 0
-30 -54 35 0
-53 22 -2 0
70 15 -26 0
38 -58 -69 0
21 -42 -22 0
16 6 -74 0
32 22 -19 0
13 53 67 0
-58 71 -14 0
72 42 -4 0
-7 2 -6 0
-15 -8 16 0
75 -37 -2 0
-50 66 70 0
4 54 25 0
59 -6 18 0
-65 57 -26 0
16 -1 -53 0
-42 75 -34 0
-55 -3 66 0
58 -26 51 0
-70 -32 18 0
19 -3 -63 0
54 5 -32 0
-59 -27 12 0
8 15 -31 0
-54 48 8 0
16 25 59 0
11 68 -52 0
18 -1 -68 0
-6 57 2 0
-65 -38 8 0
30 71 8 0
47 66 22 0
5 -68 -73 0
30 -39 45 0
73 -33 4 0
35 3 -53 0
16 22 18 0
-67 60 62 0
-38 37 24 0
-27 30 -35 0
27 62 47 0
50 -3 -38 0
72 -21 -75 0
-27 -55 -17 0
-71 59 -48 0
-10 -37 -38 0
44 -63 68 0
-18 -17 -11 0
5 6 37 0
-55 -46 6 0
-63 15 51 0
-31 -9 30 0
-5 -38 -36 0
5 67 -14 0
40 28 -23 0
-66 -9 -75 0
-40 -30 -29 0
6 -66 -68 0
69 -63 -32 0
33 57 22 0
-55 -44 -5 0
-73 36 -20 0
-14 -64 45 0
40 22 42 0
-71 54 38 0
-73 43 -10 0
-21 51 -69 0
-69 -13 51 0
26 -17 32 0
45 46 -55 0
-47 -34 60 0
41 25 -6 0
46 -53 19 0
-44 -51 24 0
-19 -40 16 0
-9 44 28 0
57 -41 72 0
-50 -4 67 0
-67 6 -39 0
-47 -11 29 0
47 -22 -20 0
-42 -73 71 0
32 68 52 0
-72 52 43 0
-55 -24 -71 0
73 45 15 0
2 36 -31 0
-45 56 67 0
6 3 25 0
58 -20 43 0
-11 -4 -50 0
-59 -11 52 0
14 -46 -9 0
36 8 -54 0
-65 -58 57 0
17 25 16 0
-51 -2 72 0
32 -60 10 0
40 24 -27 0
-16 -72 51 0
-51 -62 16 0
23 55 -74 0
-29 9 -66 0
74 -49 -33 0
40 62 19 0
-45 41 -40 0
39 56 -53 0
-45 -71 30 0
-8 -28 46 0
-33 42 69 0
22 -45 -73 0
23 37 -70 0
26 -24 44 0
-71 2 -54 0
-9 -3 35 0
-65 67 51 0
-26 64 -22 0
41 -5 59 0
-2 49 -44 0
-32 -5 3 0
-66 31 29 0
3 -20 49 0
-48 60 33 0
69 -15 -4 0
-27 -43 2 0
-62 -43 42 0
-33 48 3 0
-43 26 27 0
-75 40 66 0
-7 -19 60 0
-68 5 -49 0
21 -60 -28 0
43 45 -5 0
-69 -43 -15 0
-43 15 -19 0
13 44 75 0
1 10 -4 0
23 54 52 0
4 -69 74 0
-75 -27 19 0
57 -14 -64 0
-8 70 -3 0
-45 -61 -30 0
37 -62 -54 0
-23 64 -5 0
-27 -65 8 0
-35 -38 -11 0
12 -36 -21 0
50 39 30 0
-2 46 -11 0
10 57 -62 0
32 -15 21 0
52 -35 1 0
