c Coffinhead hard-core n=75 seed=0 ratio=4.0
p cnf 75 300
37 58 9 0
22 -40 5 0
39 49 21 0
-64 5 42 0
-51 11 -48 0
-30 -23 3 0
-37 68 28 0
-19 -75 -10 0
-43 -3 68 0
9 52 -29 0
-18 -9 3 0
11 48 -7 0
22 -24 74 0
65 -50 18 0
25 -10 3 0
31 -50 -71 0
-64 -42 69 0
-11 -64 45 0
-74 -33 6 0
-73 49 4 0
-14 -54 62 0
-26 -13 -48 0
28 -69 -45 0
-17 -18 70 0
-15 -27 3 0
42 35 -44 0
40 5 11 0
48 -74 -26 0
-17 -46 -29 0
23 25 31 0
-47 11 12 0
64 11 52 0
67 -14 -24 0
-50 4 -54 0
45 -56 -3 0
33 56 16 0
-49 -11 -33 0
-62 -61 -66 0
-50 44 52 0
-57 -70 -15 0
10 -54 -34 0
-14 -56 55 0
-41 72 40 0
-39 -8 64 0
1 42 37 0
11 -5 -74 0
63 -64 -56 0
21 -27 19 0
-44 -8 -67 0
12 -34 -35 0
26 -42 -27 0
16 37 2 0
-74 39 3 0
66 -41 -13 0
69 63 5 0
14 -37 -25 0
-38 63 46 0
-47 74 -22 0
24 22 10 0
74 40 -67 0
33 17 -26 0
-21 66 -30 0
-44 -59 5 0
-50 -38 46 0
-43 -18 -71 0
5 -38 -45 0
47 -51 -38 0
-67 74 66 0
70 -68 -67 0
54 42 -24 0
-41 -24 -61 0
51 -18 17 0
-3 2 -51 0
45 -62 49 0
-28 -48 60 0
18 41 29 0
69 -11 5 0
37 -69 -7 0
41 5 -36 0
23 2 52 0
67 -8 52 0
-17 -37 49 0
-15 -40 74 0
-45 9 33 0
-73 -56 -2 0
-7 42 -4 0
-41 62 -9 0
5 -35 65 0
16 15 -21 0
64 30 26 0
-41 -68 61 0
-65 -8 11 0
-21 -26 74 0
24 21 -6 0
63 -24 68 0
52 -74 -33 0
-4 18 50 0
-23 -3 36 0
60 -8 -72 0
-69 -55 32 0
-14 -40 61 0
-42 49 36 0
-57 -23 64 0
73 -44 5 0
-28 -41 26 0
-68 41 18 0
25 -75 67 0
55 -61 66 0
-58 57 -35 0
27 31 -22 0
9 -71 8 0
-75 42 23 0
-71 -16 -41 0
13 -40 -21 0
-7 75 -8 0
39 38 24 0
57 58 -51 0
22 44 -71 0
-62 41 -68 0
-58 12 -41 0
-73 15 57 0
14 -73 47 0
-72 -25 -45 0
29 -51 -75 0
-57 -44 -22 0
-31 -2 20 0
-63 -34 -13 0
-70 -26 53 0
1 60 -70 0
5 45 62 0
69 59 -29 0
34 -8 16 0
16 -75 -5 0
31 62 52 0
-47 -75 8 0
56 -11 -8 0
44 -60 9 0
-48 -69 -10 0
-60 25 52 0
22 -41 -28 0
17 71 -38 0
-12 -73 -9 0
-27 38 74 0
46 -74 64 0
19 44 29 0
-55 -61 -32 0
-24 -12 31 0
-3 52 -13 0
-74 -20 36 0
-65 32 44 0
-6 51 70 0
-27 54 29 0
73 -2 -61 0
-6 70 -15 0
-4 31 -7 0
23 -13 58 0
-72 -5 -63 0
40 60 61 0
74 22 47 0
-45 -17 -9 0
-7 -22 -60 0
43 -56 55 0
-67 53 -30 0
-40 9 -11 0
-3 -43 50 0
10 19 -48 0
61 -52 -72 0
-68 56 -70 0
-60 15 75 0
-52 -66 -37 0
-25 23 24 0
66 -5 22 0
-24 -64 74 0
-59 70 -53 0
27 69 -26 0
-58 50 11 0
-37 -67 -33 0
5 -24 -17 0
22 -65 27 0
65 -20 19 0
-36 38 -24 0
-18 62 -14 0
-30 75 2 0
3 68 5 0
59 -39 49 0
-47 -27 20 0
-46 34 -3 0
-45 -10 -55 0
-12 -62 -63 0
-65 -73 68 0
-45 -3 -67 0
-67 46 49 0
6 43 -72 0
26 -69 -8 0
-17 -36 -46 0
52 -38 -55 0
45 -14 20 0
-40 -28 29 0
-49 -37 -65 0
31 -47 -62 0
-51 -11 -72 0
49 73 -17 0
16 62 42 0
-73 -41 8 0
58 -4 28 0
46 -66 -65 0
-74 58 21 0
2 -54 28 0
60 -57 -1 0
55 -44 -21 0
39 12 40 0
-73 -37 -65 0
38 59 -22 0
53 -57 49 0
-72 19 -65 0
-5 -53 17 0
-34 25 -47 0
-6 -46 -59 0
62 22 71 0
68 64 46 0
-61 7 73 0
68 8 38 0
-45 48 -29 0
28 -1 42 0
-31 -45 41 0
-66 69 54 0
39 53 -52 0
-5 14 41 0
-30 18 -72 0
47 -63 -40 0
17 -37 -63 0
12 74 -29 0
-50 -48 17 0
72 -74 -29 0
-54 -20 -26 0
5 53 -65 0
-70 47 27 0
-27 -52 -40 0
1 10 -19 0
63 -29 44 0
54 8 66 0
38 -30 -5 0
20 64 -25 0
6 15 -29 0
31 44 38 0
-30 61 6 0
2 50 -36 0
-61 11 10 0
44 14 -59 0
-63 -30 -44 0
51 57 -53 0
-62 70 -27 0
39 -24 31 0
-50 55 -44 0
44 -61 49 0
-9 13 -20 0
13 9 6 0
-11 3 -50 0
73 -27 50 0
24 -53 73 0
-63 -54 -31 0
70 -59 -10 0
12 -17 -40 0
31 -28 -65 0
-31 33 30 0
-2 36 -1 0
-70 -30 -67 0
-66 58 -21 0
-5 6 -4 0
-10 20 2 0
12 -67 -60 0
17 64 -75 0
-44 73 -21 0
74 -51 5 0
55 68 -41 0
-1 -32 30 0
71 64 67 0
20 -32 60 0
-70 33 5 0
10 -41 -16 0
19 -50 -35 0
21 15 20 0
47 24 -19 0
12 -27 -67 0
61 -73 40 0
-67 63 -47 0
32 22 -62 0
4 -8 34 0
66 42 -72 0
-34 -17 69 0
61 -27 -65 0
-44 -35 15 0
-49 56 -18 0
-31 -48 12 0
-22 -59 -67 0
-6 -39 -69 0
-44 -40 71 0
-67 31 61 0
42 -14 5 0
-57 -12 38 0
