c Coffinhead hard-core n=75 seed=35 ratio=4.0
p cnf 75 300
-23 34 2 0
61 62 32 0
70 38 71 0
39 4 1 0
-74 39 -75 0
-13 -1 24 0
-4 -36 -60 0
8 -16 42 0
17 -8 -27 0
64 6 -42 0
-28 52 66 0
-29 12 -75 0
-24 -26 -19 0
-9 -25 8 0
-21 -55 -60 0
66 55 -2 0
4 47 -31 0
2 -28 25 0
45 -32 -29 0
32 -5 -61 0
27 23 -51 0
-35 -25 63 0
2 61 -33 0
-65 -31 19 0
-43 58 -67 0
39 -74 -17 0
-17 29 -58 0
-67 14 8 0
-74 50 -43 0
19 46 41 0
63 37 12 0
28 7 12 0
73 25 -31 0
-36 32 -12 0
-37 22 14 0
-14 -42 -9 0
-19 -27 37 0
44 73 21 0
-16 -68 -71 0
-18 -36 24 0
-9 69 -12 0
-30 71 60 0
-38 -62 27 0
-25 35 66 0
33 -72 -53 0
56 -32 -63 0
27 61 -13 0
-64 13 -42 0
59 -52 -58 0
73 42 17 0
53 22 3 0
-52 54 -9 0
28 -64 -62 0
19 12 -64 0
-38 43 30 0
2 -11 -26 0
25 -1 -2 0
-24 57 31 0
39 27 68 0
20 -30 -64 0
-4 -39 16 0
32 -7 54 0
71 74 -72 0
-15 47 -14 0
39 -58 60 0
50 64 48 0
8 46 -27 0
26 -51 29 0
36 70 -51 0
-24 37 -3 0
18 51 56 0
28 19 63 0
53 -34 -57 0
-31 41 -30 0
-64 -40 -37 0
49 64 -68 0
38 -48 20 0
-58 -63 -4 0
-75 3 -74 0
-61 -26 -8 0
-27 -14 -6 0
7 28 9 0
-24 52 54 0
29 14 -43 0
-29 58 44 0
-5 70 -65 0
-68 30 74 0
70 -39 8 0
-5 -11 23 0
10 67 54 0
12 -13 14 0
26 50 75 0
70 58 2 0
73 -66 -18 0
-9 -32 56 0
-67 74 -12 0
41 -51 -22 0
48 13 -5 0
-72 50 -63 0
58 -60 -21 0
-75 17 2 0
-45 26 54 0
51 32 72 0
-47 -41 10 0
-58 21 2 0
-17 -67 -35 0
43 -5 4 0
-56 -26 -75 0
55 44 68 0
-50 35 11 0
-44 7 66 0
-21 70 12 0
44 -73 51 0
44 43 60 0
18 7 -8 0
57 27 3 0
21 75 47 0
-7 68 42 0
-15 -44 68 0
30 32 29 0
-40 53 35 0
-21 -40 -2 0
-64 29 -68 0
11 -12 -8 0
22 -15 -16 0
75 70 -73 0
-42 -73 56 0
1 14 -58 0
66 -9 -31 0
33 68 25 0
69 -70 14 0
73 -2 -3 0
-16 -11 54 0
27 11 12 0
-39 55 75 0
66 18 65 0
64 -36 -48 0
75 -36 -70 0
-60 19 -2 0
-74 -66 48 0
25 -3 32 0
-5 23 52 0
-25 47 -72 0
-12 -14 54 0
5 38 -40 0
-67 5 34 0
43 -14 60 0
-25 40 -55 0
-29 -18 35 0
48 63 71 0
-36 -59 55 0
-51 -16 8 0
-11 -69 43 0
-14 46 4 0
-36 30 -50 0
-75 32 -51 0
72 9 2 0
-20 -38 -24 0
46 -55 9 0
-41 9 33 0
-46 74 -11 0
47 41 -70 0
23 -64 -33 0
71 66 27 0
41 28 53 0
47 -24 1 0
39 -40 -38 0
-20 75 -45 0
44 35 47 0
39 -60 -53 0
-15 -20 28 0
48 20 63 0
18 -3 -12 0
-74 -59 -26 0
22 20 17 0
-5 7 -6 0
13 63 15 0
42 72 9 0
51 -13 -22 0
1 51 -22 0
70 7 40 0
-29 -50 -30 0
-4 35 71 0
-57 -69 -32 0
65 40 26 0
28 -20 43 0
8 -4 24 0
39 49 -54 0
13 -61 60 0
37 63 5 0
28 -53 41 0
27 24 -54 0
-62 45 43 0
53 22 -70 0
-1 32 68 0
16 72 58 0
-6 -16 70 0
-12 -3 74 0
-54 -46 30 0
34 -37 25 0
49 -46 -59 0
45 20 -62 0
72 -11 67 0
72 -28 69 0
45 -75 -8 0
-11 12 58 0
69 -30 -50 0
-55 26 43 0
23 42 -60 0
61 -28 68 0
37 -62 53 0
-29 -47 -55 0
45 -12 48 0
24 -9 8 0
-30 -65 26 0
56 75 37 0
59 25 67 0
-7 -46 -11 0
59 63 -31 0
16 -2 36 0
32 -71 61 0
-73 -63 12 0
-33 -29 75 0
-20 21 40 0
-34 69 28 0
-32 -67 43 0
-19 8 4 0
11 -40 -36 0
-19 9 -16 0
-61 4 7 0
-5 24 2 0
-58 -65 -47 0
11 25 42 0
27 -30 13 0
49 50 46 0
-16 33 12 0
-58 70 -71 0
39 59 5 0
-2 48 9 0
-29 -1 -40 0
58 -23 31 0
31 -54 -24 0
51 57 -44 0
19 -26 -7 0
-35 -46 8 0
-16 8 -70 0
53 43 33 0
-65 49 -43 0
13 -1 18 0
42 33 32 0
38 9 -33 0
-58 -24 -74 0
-32 -66 36 0
59 15 74 0
-74 20 48 0
57 32 -9 0
-73 28 20 0
40 -26 -5 0
-65 2 4 0
2 19 -29 0
-17 -10 62 0
13 -56 -26 0
-27 -73 45 0
18 67 68 0
44 46 -36 0
4 -1 -35 0
-64 45 47 0
-27 21 -59 0
-8 -60 -1 0
34 -20 74 0
-66 -50 43 0
12 -13 -65 0
-54 47 -56 0
-70 57 65 0
-16 29 -65 0
40 24 12 0
-71 38 22 0
-11 44 57 0
-61 41 -14 0
-10 65 66 0
-5 23 70 0
-37 14 72 0
-1 68 -27 0
8 26 -22 0
29 -8 42 0
3 14 69 0
-63 -35 44 0
-39 22 48 0
-23 -37 5 0
7 -51 -48 0
-74 -43 -20 0
-70 -31 -67 0
-17 55 48 0
-54 -70 64 0
69 -70 1 0
32 8 -62 0
-61 -75 -35 0
65 -22 75 0
31 74 67 0
20 -51 -73 0
