c Coffinhead hard-core n=75 seed=9 ratio=4.0
p cnf 75 300
25 49 -15 0
2 -59 3 0
-31 -44 -63 0
68 8 1 0
28 56 -73 0
69 -59 50 0
-54 2 25 0
-7 74 37 0
53 -10 -18 0
-62 -73 -60 0
-65 -24 32 0
-61 29 -66 0
61 44 -28 0
23 15 -53 0
12 38 58 0
-72 54 -61 0
-7 -58 56 0
-7 53 30 0
10 70 20 0
22 21 -24 0
-63 9 54 0
74 -44 24 0
55 -2 -43 0
73 32 61 0
-71 62 -10 0
-7 -67 29 0
-17 -8 -32 0
58 -45 36 0
57 -26 -20 0
32 -55 -67 0
-63 -29 -25 0
-70 -33 -21 0
31 -1 45 0
-46 19 -73 0
1 12 52 0
-25 11 13 0
-47 -53 -63 0
-42 -68 -59 0
-61 48 18 0
11 -36 -57 0
56 24 -67 0
-6 -29 -8 0
1 34 -27 0
26 6 -35 0
-26 49 -65 0
30 45 3 0
-72 -11 60 0
-44 34 -39 0
-49 45 -31 0
1 -48 52 0
57 43 23 0
8 -7 -72 0
-34 59 47 0
-22 -5 -45 0
41 -31 -25 0
-22 -24 -37 0
1 -47 60 0
46 25 65 0
23 -30 -44 0
-56 12 -49 0
51 -47 -39 0
70 52 8 0
-58 -64 -49 0
-48 -18 6 0
19 36 9 0
-54 -14 9 0
-46 45 64 0
-56 15 44 0
-51 29 1 0
-33 -75 6 0
-61 67 -73 0
-1 24 74 0
50 -61 -72 0
-47 64 -51 0
64 22 -31 0
-73 30 -12 0
-73 10 66 0
46 47 -45 0
11 -69 20 0
-18 50 -53 0
27 -35 -67 0
57 6 38 0
70 -9 -42 0
-39 18 -67 0
17 29 -61 0
44 -19 23 0
64 10 -30 0
-21 -33 44 0
-31 -66 -19 0
-71 11 66 0
-26 42 9 0
-71 15 46 0
48 -16 55 0
1 -3 36 0
12 32 7 0
60 -5 -54 0
-17 16 14 0
-8 -57 19 0
-14 17 -28 0
-72 40 -48 0
23 26 -45 0
75 39 61 0
-19 22 68 0
-42 -13 7 0
58 -41 -37 0
-13 39 15 0
6 75 -58 0
31 49 -16 0
35 -64 -14 0
-3 -45 -46 0
-19 -63 -64 0
56 -62 -15 0
-28 46 -31 0
-28 -45 -1 0
16 7 43 0
21 19 -39 0
-56 72 45 0
-53 -65 24 0
-27 -24 -45 0
-23 -54 -62 0
-13 35 49 0
-51 23 49 0
-58 -66 -59 0
-58 7 -46 0
19 -31 6 0
-52 -62 20 0
19 -57 59 0
-27 34 -25 0
-71 74 -52 0
2 33 42 0
-7 39 -71 0
65 70 -56 0
-27 8 -13 0
6 -18 23 0
22 15 -64 0
-64 9 -13 0
15 75 -24 0
4 -37 50 0
-47 31 69 0
63 -28 -48 0
-16 -46 49 0
-67 32 -42 0
69 -58 -16 0
-69 71 30 0
-48 70 4 0
57 -11 -62 0
9 39 -73 0
-64 42 -31 0
15 -68 41 0
9 17 -11 0
-51 -17 65 0
-64 4 49 0
-74 51 63 0
18 12 46 0
-73 -4 34 0
23 27 -6 0
-28 69 -6 0
-74 -71 -7 0
-54 -8 9 0
-34 26 -24 0
57 -55 -3 0
-37 -22 1 0
71 -65 62 0
29 -49 52 0
32 73 36 0
-2 58 41 0
20 9 31 0
30 64 40 0
-12 -75 -28 0
31 6 -1 0
7 59 -33 0
66 -50 -8 0
-59 62 -42 0
-71 34 8 0
65 -29 -54 0
73 -32 -75 0
-12 45 23 0
-52 -4 38 0
-21 -30 -24 0
-42 -12 17 0
-52 12 -42 0
23 -2 37 0
-4 -51 -27 0
46 5 -7 0
-14 30 -46 0
-20 27 4 0
-4 -36 67 0
-66 -62 -25 0
-44 -51 -22 0
-15 -35 26 0
-64 21 68 0
68 33 64 0
-74 -63 34 0
-11 73 -6 0
68 37 17 0
40 56 25 0
-75 18 13 0
-26 28 66 0
-4 51 65 0
17 -40 -33 0
-38 45 -66 0
-5 -21 -27 0
-70 55 -57 0
28 -42 -35 0
41 73 61 0
-22 -73 -12 0
50 62 -57 0
-2 -19 7 0
30 54 -47 0
54 -67 29 0
5 14 6 0
-44 66 11 0
-37 -53 -70 0
-38 48 -39 0
-72 -67 -30 0
14 -57 38 0
-57 3 -8 0
-62 39 -49 0
69 27 31 0
-23 65 -66 0
44 74 -3 0
-34 75 -12 0
29 -13 -12 0
65 55 67 0
25 -66 -43 0
-25 30 33 0
35 -2 -20 0
7 -59 41 0
-67 -19 40 0
-37 -4 -49 0
-69 -47 37 0
34 -62 -30 0
-55 13 -35 0
-42 63 23 0
-52 -54 26 0
49 62 34 0
-25 -75 -69 0
-31 14 19 0
44 4 -45 0
-17 -56 -1 0
-71 25 -36 0
-1 -71 22 0
-21 -28 -31 0
26 -20 56 0
29 -52 -68 0
28 18 70 0
58 32 56 0
-63 -28 53 0
60 35 -33 0
72 15 -41 0
-70 74 -38 0
69 -20 -35 0
52 49 32 0
-68 7 8 0
69 -48 -61 0
-71 -23 -2 0
67 -45 2 0
40 65 70 0
71 3 4 0
-64 -46 -11 0
60 55 -58 0
-38 23 -33 0
68 73 -36 0
-57 -10 -63 0
-75 -41 67 0
73 -4 -47 0
-63 -68 25 0
-29 -31 -13 0
53 -74 17 0
-66 9 36 0
62 -48 -56 0
61 -51 26 0
25 -6 -54 0
28 -40 -29 0
6 12 -26 0
19 -44 -25 0
-21 -64 -24 0
-3 18 -25 0
38 45 -8 0
-10 9 -67 0
-11 -66 21 0
-59 -69 64 0
-12 45 19 0
-39 28 -66 0
41 -45 29 0
-4 38 -74 0
40 -49 72 0
15 3 20 0
39 40 -52 0
18 -74 72 0
-65 26 58 0
6 -25 51 0
24 -18 -64 0
53 -56 24 0
-43 75 58 0
6 -50 30 0
-70 -36 17 0
47 -60 -73 0
24 -13 -34 0
51 53 2 0
