c Coffinhead hard-core n=75 seed=49 ratio=4.0
p cnf 75 300
21 -53 63 0
23 -13 10 0
-15 -30 16 0
48 -58 -20 0
-4 28 -69 0
-21 34 -58 0
38 43 -50 0
-13 53 70 0
-38 -53 -14 0
27 -11 -44 0
-50 -21 -3 0
55 -44 -69 0
-61 73 68 0
11 39 -53 0
5 44 -35 0
-38 -26 -46 0
9 -10 59 0
-21 42 37 0
47 -3 -51 0
-58 -40 -35 0
20 57 -40 0
-50 2 -3 0
-74 72 -12 0
17 10 -1 0
48 -45 4 0
-48 -71 -43 0
-74 -54 5 0
-35 43 -69 0
-7 -14 19 0
68 34 -61 0
-24 70 -5 0
-9 25 56 0
-62 -46 48 0
25 72 -33 0
18 -65 5 0
-46 -54 12 0
-36 8 29 0
9 -74 -4 0
64 50 -69 0
-51 52 32 0
-39 -75 44 0
-2 45 -13 0
38 -29 14 0
-2 -8 61 0
75 46 -35 0
-11 65 67 0
67 -10 -65 0
-52 38 2 0
-16 75 -63 0
28 61 5 0
-51 -74 6 0
59 -62 -11 0
-9 50 -60 0
-6 -67 12 0
70 74 69 0
-3 75 -70 0
-13 58 41 0
20 51 74 0
70 -74 -67 0
12 52 75 0
-30 32 -59 0
75 64 -55 0
-52 4 29 0
-64 -21 -14 0
-4 -38 63 0
-70 48 -34 0
-20 -69 -74 0
-59 53 65 0
-6 31 37 0
-53 70 65 0
64 58 9 0
-20 -44 16 0
-51 14 -12 0
-15 -23 52 0
6 13 -70 0
28 -19 5 0
-9 52 -70 0
-29 -66 -36 0
28 -29 -2 0
-46 27 -39 0
-40 49 52 0
-19 31 -6 0
25 8 -51 0
-69 61 74 0
-73 75 -59 0
23 -12 -37 0
-12 -17 58 0
-50 58 38 0
-13 -10 30 0
-45 -43 53 0
-33 38 62 0
62 -14 10 0
-27 -47 75 0
-75 -57 61 0
-74 -12 -22 0
13 69 -17 0
-29 58 6 0
-75 24 -73 0
46 -49 -34 0
19 6 -2 0
-56 54 73 0
-8 42 -40 0
29 56 -18 0
-73 74 64 0
39 -28 3 0
69 45 -49 0
-57 -50 5 0
4 70 -17 0
-72 48 14 0
-61 -60 35 0
-17 -73 -1 0
-12 49 54 0
-61 -38 -29 0
29 -14 -43 0
11 -19 -7 0
-4 -52 -58 0
56 -19 -44 0
-16 -45 -41 0
50 61 -58 0
-5 8 49 0
67 8 12 0
-36 23 -32 0
10 46 -52 0
30 -28 -22 0
28 -23 10 0
-51 -13 -10 0
-61 -58 -1 0
13 11 43 0
-45 63 -20 0
44 50 67 0
63 4 9 0
-75 -38 45 0
-33 48 -66 0
42 10 66 0
49 -18 6 0
3 -29 49 0
36 -10 -44 0
31 49 16 0
-24 -2 -37 0
-16 29 -74 0
66 55 21 0
-68 8 -54 0
58 26 64 0
-10 63 36 0
39 41 18 0
7 -68 -53 0
58 -68 -67 0
-11 44 12 0
-21 56 26 0
-18 -1 23 0
59 19 12 0
38 19 17 0
16 28 -20 0
-43 -21 44 0
-12 56 -69 0
2 -47 30 0
10 75 -56 0
51 29 -65 0
2 64 -35 0
-74 15 43 0
31 55 -57 0
-13 -18 25 0
-70 -33 -72 0
15 -39 23 0
-34 52 -70 0
67 38 62 0
-49 -60 -23 0
-16 -5 36 0
-22 -65 -52 0
-28 10 -54 0
-40 13 14 0
2 12 -57 0
-16 25 21 0
-26 67 -33 0
-31 -64 -6 0
69 -28 -64 0
-52 -6 75 0
-15 -32 -31 0
3 19 30 0
-9 -62 5 0
65 -15 -66 0
-62 45 60 0
65 -36 69 0
-27 -54 -30 0
-22 24 31 0
-9 16 74 0
-36 -62 74 0
55 62 -17 0
-35 63 -1 0
74 -63 16 0
-62 46 69 0
-58 -36 3 0
23 60 -55 0
-30 27 64 0
-13 -1 9 0
35 -63 12 0
-63 -64 56 0
16 -42 46 0
-10 70 -71 0
10 -33 -31 0
4 -44 56 0
-6 -3 -39 0
46 30 25 0
-64 -38 48 0
-69 -56 -61 0
-74 36 31 0
-44 -45 -47 0
29 -45 65 0
-36 -62 37 0
75 -46 -19 0
-29 -66 35 0
-16 42 7 0
55 -43 -52 0
62 -5 -47 0
25 -2 -27 0
-63 -9 -57 0
29 -67 -24 0
-20 71 56 0
21 -50 -1 0
-19 -27 -66 0
-67 41 64 0
-33 -55 53 0
-27 -20 71 0
-58 74 -19 0
-56 -53 35 0
19 -24 55 0
47 -49 9 0
-44 -57 -43 0
63 -60 55 0
-62 38 73 0
-29 53 59 0
-46 -31 -63 0
31 72 -62 0
-55 -65 29 0
-70 16 43 0
-51 -73 -75 0
-55 -41 -44 0
19 1 -6 0
-23 -40 -72 0
71 58 69 0
17 24 22 0
-75 -3 32 0
55 60 67 0
72 37 -54 0
44 10 35 0
60 2 -69 0
1 -21 63 0
55 -25 -32 0
-17 61 -5 0
-68 -40 36 0
54 -38 50 0
-18 -1 -70 0
-53 -17 37 0
28 72 -45 0
-46 4 -51 0
-2 48 -33 0
-55 -61 -60 0
-41 39 36 0
27 -23 -2 0
30 35 -13 0
1 39 -5 0
-38 -3 10 0
-50 -75 -44 0
-22 16 -5 0
72 3 -9 0
38 -39 -20 0
28 -9 -8 0
17 -4 -1 0
24 -20 -13 0
67 -33 -57 0
-69 -33 25 0
4 -50 -12 0
45 29 -11 0
-11 -15 -7 0
22 -54 -61 0
-51 -24 31 0
-25 -12 47 0
45 28 -24 0
-45 -49 4 0
-41 64 58 0
59 -58 31 0
-15 67 -71 0
-70 20 -17 0
9 22 -74 0
39 36 14 0
10 -48 -56 0
-17 58 16 0
62 11 -71 0
6 11 -8 0
37 -7 46 0
15 -31 49 0
-74 -10 23 0
8 54 -37 0
-36 -59 -51 0
31 60 -44 0
37 -62 23 0
25 28 37 0
59 9 -55 0
-41 -67 44 0
-50 -27 37 0
