c Coffinhead hard-core n=75 seed=11 ratio=4.0
p cnf 75 300
-22 75 13 0
31 48 3 0
25 59 2 0
39 -24 8 0
37 18 -58 0
64 60 37 0
33 3 32 0
6 12 16 0
-22 -37 42 0
56 29 -40 0
56 -9 -40 0
8 -19 45 0
1 11 14 0
-54 51 -65 0
-60 48 26 0
-31 30 38 0
-1 74 -48 0
26 -22 65 0
66 -18 -30 0
3 35 -33 0
-11 42 -68 0
-46 53 40 0
8 -7 -22 0
-43 -67 -73 0
-3 -34 -52 0
-70 6 29 0
73 57 -59 0
-13 64 51 0
-3 57 60 0
-34 71 66 0
5 -64 -67 0
-59 -50 -69 0
70 38 55 0
-52 50 71 0
-16 -7 -53 0
-3 -51 -68 0
-24 68 -19 0
-64 12 -43 0
-37 -39 3 0
48 23 22 0
16 30 44 0
-69 -15 -47 0
14 6 75 0
-65 17 63 0
66 -9 -3 0
71 49 52 0
-65 49 5 0
-31 51 49 0
59 -21 63 0
72 69 -41 0
-69 -45 -14 0
-15 -74 42 0
-66 25 -33 0
-9 -31 10 0
-58 -33 67 0
-14 -33 -5 0
34 66 -71 0
-35 36 58 0
38 75 -73 0
-51 -72 -49 0
6 -11 -68 0
-45 -14 59 0
74 -17 -45 0
25 7 6 0
72 -31 22 0
41 -2 75 0
20 21 -26 0
31 -41 -50 0
66 -55 7 0
-55 58 -49 0
-12 66 35 0
21 68 -65 0
5 -10 38 0
-11 -33 -21 0
38 13 -3 0
-60 -35 -52 0
-71 -48 -24 0
-16 62 -46 0
55 -27 -40 0
20 6 -25 0
-59 -68 -40 0
39 -33 -11 0
42 -52 16 0
-3 1 -71 0
58 60 -12 0
71 -35 -72 0
-57 -69 8 0
45 65 16 0
-10 -41 66 0
17 45 -7 0
-36 -74 32 0
11 46 -54 0
-74 65 55 0
7 -11 -73 0
-39 -61 31 0
-57 75 -55 0
68 12 -52 0
-49 -29 58 0
33 -52 24 0
-57 -11 24 0
-73 20 -42 0
55 63 -14 0
66 35 47 0
49 -61 -47 0
17 38 -29 0
18 -33 -29 0
-44 -57 -45 0
-41 16 74 0
-4 -73 -49 0
28 4 -11 0
31 3 72 0
-66 36 -71 0
34 -51 55 0
-35 -27 64 0
-32 -46 -34 0
-14 16 -6 0
-39 -41 45 0
41 32 -65 0
-18 -44 25 0
-19 -52 25 0
72 -58 -22 0
26 39 55 0
72 69 18 0
-11 -49 29 0
24 52 -44 0
26 -56 40 0
-42 19 66 0
-13 1 -64 0
71 31 -36 0
-23 -65 -68 0
60 -66 58 0
-8 29 -30 0
-46 -14 -19 0
36 -12 49 0
14 2 -34 0
-54 34 -71 0
4 -24 -10 0
-50 72 9 0
57 -68 -64 0
45 52 5 0
16 -31 -38 0
-59 37 61 0
2 9 -62 0
-47 73 -56 0
35 -59 -63 0
-46 48 -34 0
-54 -24 -63 0
-16 10 -27 0
-62 -35 -58 0
44 -29 -66 0
2 1 -48 0
-19 15 75 0
-41 50 28 0
-68 72 5 0
4 -70 68 0
-49 -26 41 0
58 59 5 0
2 41 31 0
53 17 -69 0
-32 -66 63 0
-39 -15 -70 0
49 13 62 0
1 -63 -50 0
4 1 33 0
-65 56 -73 0
19 63 55 0
30 12 33 0
-72 -7 63 0
23 39 62 0
36 12 5 0
-60 35 20 0
-39 -22 -25 0
40 -31 54 0
24 -69 -49 0
7 71 43 0
-24 -33 -14 0
-21 -50 30 0
-34 -75 -5 0
6 17 -30 0
2 -23 42 0
-21 33 70 0
-20 -31 -24 0
-50 63 48 0
56 65 -19 0
56 -25 -61 0
-3 -4 -68 0
-8 73 51 0
-46 -72 49 0
39 -22 35 0
17 39 -21 0
-59 6 -31 0
-66 67 -11 0
-24 2 -23 0
-41 25 19 0
-39 54 12 0
47 15 17 0
55 56 -28 0
-3 -68 38 0
33 42 25 0
-54 -35 -38 0
73 65 28 0
-20 18 66 0
-52 53 23 0
34 -9 42 0
-32 -53 -10 0
9 -69 -2 0
-30 -46 -70 0
-63 -54 27 0
27 56 -11 0
-51 63 74 0
49 52 -2 0
-63 -62 -30 0
10 6 -65 0
-18 -23 -1 0
62 -5 -71 0
-51 -49 60 0
1 11 45 0
-68 -47 67 0
-32 11 -70 0
-47 51 48 0
-1 8 -58 0
-36 11 8 0
43 -19 50 0
-23 -9 59 0
-5 43 36 0
22 69 -50 0
30 -14 65 0
-74 -1 -58 0
-42 71 -8 0
35 -17 2 0
-47 20 -54 0
27 -26 -67 0
42 -37 -72 0
-52 -39 13 0
-72 -32 -3 0
31 -19 53 0
-65 59 -64 0
33 47 58 0
-60 4 -8 0
-55 75 -66 0
-39 -29 -62 0
-42 46 -27 0
-37 21 46 0
52 -5 -43 0
-30 -52 -47 0
39 -22 71 0
73 27 56 0
44 18 50 0
-45 17 -24 0
-72 62 -60 0
66 54 12 0
52 -36 61 0
73 35 3 0
43 22 12 0
-26 -63 51 0
23 61 -17 0
-32 -57 -7 0
74 -20 66 0
-62 -48 64 0
70 27 -63 0
51 74 -25 0
-11 -5 41 0
-29 -74 -62 0
-53 65 35 0
-56 -23 -9 0
-53 -9 72 0
-12 -14 40 0
-54 64 -38 0
66 -24 51 0
-69 44 -15 0
62 -52 56 0
11 19 53 0
-71 -69 -66 0
-57 -52 -22 0
-43 -64 -27 0
64 33 -18 0
52 1 65 0
50 37 -9 0
12 -26 -10 0
-55 24 34 0
-59 63 18 0
45 63 50 0
53 -34 -32 0
-65 63 34 0
23 -3 19 0
7 4 70 0
-19 -63 70 0
-21 36 -1 0
-48 39 -7 0
-24 3 19 0
23 -57 -17 0
70 -51 -69 0
-34 -48 46 0
2 -10 -41 0
58 53 -74 0
66 14 37 0
57 73 -31 0
-59 4 19 0
-51 -55 -47 0
18 60 -41 0
