c Coffinhead hard-core n=75 seed=17 ratio=4.0
p cnf 75 300
69 -13 -75 0
26 -24 17 0
64 57 -12 0
-54 45 -10 0
-64 38 -12 0
-54 -4 -16 0
-13 -11 54 0
-14 71 -7 0
-43 -65 -71 0
-67 39 -69 0
-56 36 -74 0
-72 12 50 0
62 -74 -13 0
-2 -3 31 0
4 45 -24 0
55 -54 -52 0
-35 62 63 0
43 -14 -30 0
27 -11 -60 0
60 -28 50 0
57 -56 -38 0
58 -54 -60 0
48 51 -9 0
-30 55 -13 0
-21 -2 -71 0
-32 -49 -66 0
-60 -67 -66 0
3 30 36 0
42 40 34 0
-1 5 -23 0
-26 16 -62 0
-19 4 15 0
33 -10 -17 0
10 34 2 0
43 -14 -50 0
34 26 -8 0
-14 58 -57 0
74 -56 73 0
-74 42 20 0
-14 1 -62 0
-5 2 -59 0
-40 50 33 0
59 27 -30 0
-45 -66 -26 0
14 -56 71 0
-39 73 34 0
-39 -23 60 0
-74 -59 -62 0
-4 -40 -63 0
-43 69 24 0
-2 -52 57 0
-13 15 -2 0
34 -22 2 0
-42 -56 -44 0
-19 -25 -60 0
20 -63 62 0
18 42 -20 0
24 13 19 0
36 21 42 0
-18 -34 -68 0
-32 -42 -39 0
39 19 -18 0
7 56 15 0
61 45 -56 0
71 -4 -66 0
23 27 52 0
40 72 65 0
-51 65 -6 0
27 -12 -59 0
8 -71 55 0
20 -73 -9 0
-19 -62 -14 0
-65 22 -13 0
63 4 -74 0
25 -52 -35 0
-47 -7 -56 0
-17 -57 -52 0
-68 -48 -60 0
10 72 -70 0
-64 -27 74 0
-49 -52 -16 0
-22 46 51 0
58 36 37 0
73 -45 -12 0
26 -1 -69 0
-24 -25 -41 0
-9 34 -7 0
44 16 74 0
24 -68 7 0
47 -55 16 0
8 38 17 0
54 24 -73 0
53 -44 73 0
-51 -16 -55 0
30 33 38 0
30 -19 -66 0
30 -66 43 0
-22 -59 42 0
-72 -32 -12 0
-29 6 67 0
10 74 -25 0
-18 55 -4 0
29 17 43 0
55 -37 66 0
20 49 24 0
-61 -7 48 0
-50 23 -36 0
14 58 7 0
-25 -27 14 0
39 49 -31 0
-39 36 54 0
70 57 -33 0
4 49 21 0
34 46 -22 0
1 -29 -15 0
48 55 52 0
-42 13 -2 0
49 67 65 0
13 -69 -34 0
-11 -45 -33 0
-53 70 13 0
74 29 -62 0
-11 30 -72 0
-74 10 7 0
36 -7 63 0
50 29 46 0
-46 -16 71 0
-8 54 67 0
32 -23 -36 0
74 -11 51 0
-2 -35 70 0
31 32 -62 0
-21 -54 -19 0
36 -64 -12 0
38 23 27 0
-43 -18 49 0
-10 -67 72 0
62 -73 -61 0
-3 12 -25 0
-59 -50 -10 0
-19 -27 51 0
-8 45 67 0
2 30 13 0
-12 27 8 0
-48 -6 -67 0
15 -7 -66 0
58 -32 -52 0
-46 65 26 0
47 37 62 0
15 -39 31 0
-51 -73 -22 0
-43 -1 46 0
11 51 -12 0
-46 72 20 0
-46 -53 -65 0
33 6 2 0
13 -32 56 0
-30 -41 -11 0
-14 61 64 0
25 -71 1 0
6 52 -40 0
65 -50 29 0
15 -53 47 0
-42 59 14 0
-33 52 45 0
7 -26 -47 0
-30 57 65 0
34 54 58 0
33 43 -16 0
9 -25 71 0
-15 -24 32 0
-17 74 -53 0
-6 -25 -58 0
-56 -57 37 0
21 -25 -39 0
-55 -59 -4 0
-31 70 40 0
-37 16 -41 0
1 -16 68 0
-48 34 -1 0
46 -12 -36 0
-1 -27 -49 0
-71 53 20 0
14 -59 -43 0
-56 -37 39 0
59 15 53 0
74 -43 14 0
-2 -9 57 0
-43 -14 32 0
33 -27 44 0
33 -49 74 0
-21 -9 -7 0
17 -62 -6 0
60 69 -18 0
41 28 -16 0
-29 -48 47 0
8 -60 -48 0
75 67 -26 0
20 1 -65 0
-65 -17 25 0
-63 40 -3 0
-27 -54 -57 0
70 -58 -22 0
47 15 26 0
38 -71 65 0
-48 29 -33 0
44 -4 18 0
57 50 -2 0
-43 20 51 0
-66 -1 -34 0
66 -62 -60 0
37 40 23 0
-74 -8 38 0
-58 54 -32 0
-9 -13 -41 0
-74 66 -46 0
-56 22 70 0
-56 -54 20 0
21 -36 -65 0
-66 28 24 0
34 30 -20 0
33 -6 73 0
-7 49 -73 0
51 -57 -61 0
5 -48 33 0
-74 60 62 0
-43 -49 30 0
48 24 -17 0
-10 71 -29 0
54 30 -9 0
-16 -5 -73 0
46 -37 27 0
61 32 58 0
1 69 26 0
-59 23 -14 0
-21 33 8 0
-10 9 -64 0
-7 44 -33 0
53 -37 34 0
-39 -22 30 0
72 55 -50 0
14 -44 -7 0
-75 71 68 0
-35 55 26 0
32 22 -55 0
34 11 60 0
-52 -2 -64 0
56 41 11 0
59 74 -39 0
-39 -47 27 0
18 -29 54 0
17 20 -23 0
-5 -43 52 0
-72 -52 -61 0
46 9 18 0
-12 -26 47 0
56 6 20 0
-19 -62 -67 0
-21 -39 14 0
37 -59 10 0
-16 -61 -48 0
54 -37 7 0
42 52 64 0
-68 -45 65 0
30 -57 74 0
18 8 -68 0
-2 -48 -36 0
44 -14 -19 0
72 -29 -30 0
12 72 -25 0
31 -70 -30 0
-30 -67 49 0
52 -32 -54 0
-8 -31 21 0
-56 32 -54 0
66 63 -55 0
17 68 9 0
8 54 53 0
-37 -74 -36 0
-31 59 5 0
-7 -36 -30 0
-7 -60 54 0
-67 -52 -13 0
-57 -73 -55 0
-66 -43 -59 0
-4 39 -69 0
71 11 -14 0
-34 -21 -51 0
63 -50 -5 0
18 -45 30 0
19 23 59 0
-31 4 -39 0
-28 -50 -46 0
-24 12 -33 0
4 2 -42 0
28 56 -55 0
-62 -50 22 0
-20 27 52 0
-60 -59 -65 0
-10 -37 -47 0
