c Coffinhead hard-core n=75 seed=16 ratio=4.0
p cnf 75 300
-52 10 68 0
-44 -72 -25 0
-67 -29 18 0
-70 -33 -50 0
18 57 33 0
34 30 -31 0
15 -50 45 0
-49 -64 17 0
-35 58 42 0
54 8 -25 0
-66 -49 -13 0
-38 29 -67 0
7 -18 -3 0
65 6 -61 0
19 -17 9 0
74 -8 -73 0
-71 50 65 0
-68 -53 60 0
-34 -23 -30 0
35 21 63 0
61 51 46 0
-15 58 -5 0
13 -8 66 0
-43 -56 -40 0
45 -26 69 0
-17 -11 70 0
34 56 -36 0
31 43 -21 0
-6 -59 47 0
56 41 14 0
7 -54 -33 0
-61 68 43 0
-3 -8 -34 0
-52 50 59 0
35 34 6 0
-19 -26 -45 0
41 49 9 0
43 -10 -1 0
72 45 -6 0
59 -1 24 0
-52 33 -55 0
-75 -41 23 0
-35 68 -56 0
64 -58 3 0
73 -37 66 0
-40 48 51 0
63 27 -47 0
-30 -37 12 0
66 -40 -3 0
-3 -20 42 0
64 35 74 0
19 -72 69 0
55 -26 64 0
60 -75 -48 0
28 -40 25 0
-7 -43 -56 0
-12 -36 -4 0
-40 -39 36 0
-4 -62 -53 0
-64 -44 33 0
-24 -63 40 0
31 65 36 0
-10 -35 54 0
12 5 -60 0
2 -60 -34 0
26 -62 23 0
2 -51 -42 0
-5 62 13 0
-33 -42 31 0
-51 31 -39 0
-32 -52 74 0
42 6 45 0
34 -20 -10 0
-65 33 -12 0
39 -53 25 0
26 14 -73 0
71 -19 20 0
-2 13 7 0
-72 8 19 0
43 -63 -18 0
72 -56 -22 0
60 17 41 0
-45 12 -58 0
17 -41 63 0
-67 -74 13 0
-1 -39 2 0
-19 -73 70 0
-48 54 -1 0
45 -18 -75 0
-5 -61 37 0
-13 -38 3 0
-8 49 -25 0
-32 -61 33 0
33 -71 -37 0
18 -19 -68 0
-16 -33 41 0
17 -42 -12 0
-35 -70 2 0
-71 -55 -21 0
37 -15 41 0
72 71 -16 0
-57 -48 -1 0
44 74 -17 0
45 28 -15 0
65 14 40 0
-21 -11 58 0
-67 -54 -6 0
-25 62 68 0
-7 -48 64 0
-54 10 -49 0
-37 56 -1 0
35 56 -11 0
59 13 52 0
-39 25 16 0
-31 64 -46 0
-48 25 -53 0
-57 -49 25 0
-59 22 75 0
-27 19 4 0
-27 -8 -45 0
31 48 12 0
56 55 68 0
-30 -9 -28 0
-53 -44 -20 0
10 25 71 0
-29 6 60 0
-46 41 60 0
33 -11 69 0
-7 -43 -58 0
-62 54 -63 0
39 46 42 0
-15 13 29 0
31 -71 -32 0
-74 66 57 0
7 59 -53 0
61 -20 60 0
41 -9 -1 0
31 -67 -59 0
-1 -14 71 0
14 -75 -47 0
59 49 -37 0
27 74 57 0
12 39 37 0
70 -66 -33 0
-20 -47 -42 0
-73 -39 -9 0
23 57 -13 0
18 32 -48 0
-20 -40 -28 0
43 -3 -61 0
-19 56 52 0
-31 34 -40 0
-61 73 -62 0
-60 -73 71 0
-55 12 -29 0
-38 65 -54 0
59 -52 26 0
18 51 -66 0
-37 -26 -56 0
19 48 -28 0
47 69 71 0
-30 -61 -64 0
6 13 44 0
12 -66 75 0
-57 -55 1 0
-25 -38 -10 0
58 -8 38 0
-17 -31 -15 0
-73 68 18 0
43 58 -3 0
-50 44 -56 0
64 -61 33 0
-24 46 52 0
-11 27 -71 0
-30 -67 -64 0
-7 13 14 0
-34 -46 13 0
-54 -31 28 0
60 9 6 0
-64 -57 -23 0
-5 -56 15 0
3 -21 56 0
-39 31 -9 0
-42 -17 51 0
65 -26 66 0
-33 -27 -21 0
-7 -5 -67 0
65 3 37 0
13 -14 55 0
-59 -54 70 0
67 -25 -47 0
11 8 46 0
65 -15 -49 0
-12 -69 -15 0
-44 24 -29 0
10 33 22 0
73 -29 35 0
24 66 35 0
-47 -18 -2 0
1 -23 63 0
-5 -50 18 0
68 39 -18 0
53 11 -4 0
-42 -24 -9 0
-17 28 -19 0
2 32 -63 0
34 -50 -53 0
-40 -20 -58 0
10 -49 -47 0
4 -17 -6 0
-31 53 -29 0
39 -51 11 0
34 -66 73 0
-42 -47 -20 0
-67 11 -57 0
26 -14 -22 0
19 57 33 0
31 46 -24 0
-41 -55 -50 0
72 -14 -43 0
-3 -44 30 0
50 -44 -16 0
-15 51 -5 0
-18 7 -46 0
18 75 -13 0
25 6 -40 0
18 19 14 0
-4 -44 65 0
41 55 48 0
41 -46 37 0
28 69 -58 0
63 -5 -72 0
-40 -41 4 0
24 63 -43 0
-35 -12 68 0
23 -16 -27 0
-26 42 10 0
-27 35 -65 0
-34 -9 -53 0
6 -65 37 0
9 -29 69 0
21 -39 72 0
24 -6 -52 0
40 -19 -2 0
-7 38 52 0
64 -2 44 0
-24 -6 71 0
8 30 -13 0
64 70 62 0
-41 -6 10 0
65 35 -6 0
56 2 47 0
72 14 6 0
52 -16 53 0
36 65 -28 0
-72 -34 51 0
-55 -28 72 0
20 -22 67 0
-2 -56 39 0
-42 40 28 0
5 -73 -34 0
-7 -62 10 0
-61 -72 5 0
-66 -24 -16 0
-65 22 -20 0
-65 -21 -41 0
-20 29 -69 0
60 7 12 0
-28 -12 -7 0
-43 7 -75 0
-29 44 9 0
-21 18 74 0
-74 73 -65 0
-29 52 -34 0
8 -57 39 0
12 -9 36 0
-41 4 -3 0
-33 -10 3 0
-17 71 -30 0
54 -27 63 0
-51 -57 -31 0
49 52 44 0
-14 -58 40 0
-61 21 -64 0
73 -40 -10 0
-44 18 -33 0
-75 -31 -3 0
53 -66 8 0
-72 -19 15 0
-71 44 -53 0
52 -57 -35 0
-39 36 49 0
74 -45 49 0
33 41 19 0
7 -51 -17 0
-8 74 -75 0
60 -49 23 0
-24 -41 -49 0
64 12 61 0
33 4 61 0
