c Coffinhead hard-core n=75 seed=3 ratio=4.0
p cnf 75 300
-34 49 -21 0
54 52 56 0
-69 -57 -34 0
-56 -18 13 0
-52 71 -13 0
-61 1 47 0
47 50 44 0
63 -5 -28 0
64 -14 -33 0
-30 -57 -66 0
47 -32 -71 0
-38 -2 50 0
48 -15 -26 0
-6 -46 24 0
-65 -15 29 0
47 -74 -37 0
-27 69 -50 0
-27 -45 -50 0
-45 40 -9 0
19 55 -52 0
32 5 -52 0
-69 -15 65 0
68 53 8 0
63 16 -48 0
21 27 35 0
24 -25 -73 0
-31 37 44 0
-52 34 -61 0
3 -71 45 0
50 -13 18 0
-23 -12 -66 0
-45 -25 65 0
15 -59 10 0
57 66 -44 0
-13 59 -43 0
-50 -21 -57 0
53 25 48 0
-39 -62 -49 0
-38 -8 -15 0
4 -31 36 0
-5 -67 68 0
75 43 59 0
3 -67 15 0
-69 56 70 0
-15 -35 27 0
-21 32 -48 0
42 -5 38 0
-30 -58 50 0
71 63 4 0
58 -59 56 0
73 40 28 0
-50 60 43 0
19 58 -52 0
9 -13 -8 0
-25 -35 -58 0
-35 -62 -17 0
71 69 -20 0
-36 20 -65 0
-8 -74 71 0
-18 -28 -12 0
65 61 -1 0
60 -39 17 0
-40 44 37 0
75 -31 -57 0
39 -4 -7 0
-1 -2 -22 0
-70 29 6 0
-2 -58 -64 0
61 -7 5 0
73 69 -17 0
-20 60 24 0
53 34 -44 0
-30 -41 -39 0
-54 72 -31 0
-28 26 4 0
21 -56 -73 0
-48 16 2 0
64 -8 -60 0
-66 1 2 0
36 4 45 0
-31 15 -35 0
-29 -60 -30 0
38 16 -42 0
-73 -37 -7 0
18 40 8 0
25 -37 24 0
28 61 14 0
22 -70 -65 0
-1 24 6 0
57 -28 41 0
22 -14 50 0
-14 -64 34 0
-60 -45 53 0
37 -73 18 0
-5 -55 22 0
15 68 38 0
2 58 -38 0
-25 75 12 0
38 -31 8 0
-11 71 -16 0
7 30 75 0
45 -58 54 0
-50 53 -58 0
-20 15 -60 0
3 -8 43 0
-13 -43 -21 0
49 33 -53 0
-19 -68 5 0
15 -50 -44 0
-3 29 8 0
-2 43 27 0
32 23 -57 0
15 74 64 0
3 42 -59 0
-24 -10 -14 0
41 -8 -1 0
17 66 -46 0
-39 -24 37 0
-33 29 -59 0
-25 -9 -62 0
-31 69 32 0
-71 -5 38 0
-73 2 52 0
-15 -71 10 0
-23 38 6 0
21 18 -25 0
62 -21 6 0
-44 68 55 0
4 47 -20 0
28 -25 9 0
7 33 -21 0
-2 -67 4 0
65 -49 -3 0
-9 4 45 0
32 -14 -54 0
-64 28 57 0
-71 -12 7 0
59 -8 -30 0
32 52 15 0
-50 20 -34 0
17 -11 -48 0
70 66 -33 0
-37 -70 31 0
-2 32 26 0
36 1 -56 0
62 -7 38 0
25 31 47 0
-12 -74 -37 0
47 10 -60 0
-64 8 -15 0
2 50 32 0
-15 51 -8 0
-37 38 -61 0
-31 -70 15 0
19 -5 -45 0
-17 -61 -12 0
16 -5 -28 0
51 2 -11 0
-39 14 67 0
73 67 29 0
2 -70 -72 0
-17 -7 24 0
29 8 -15 0
20 53 56 0
17 -35 70 0
-46 65 69 0
29 66 -17 0
74 -61 71 0
46 17 -24 0
64 -52 -8 0
14 13 43 0
35 -8 30 0
-9 -43 23 0
30 22 -37 0
-7 2 -38 0
43 29 60 0
-29 -28 50 0
68 73 53 0
-73 52 23 0
20 4 6 0
2 12 -71 0
75 38 65 0
-48 55 31 0
-68 -12 -44 0
-49 -38 -26 0
-44 -6 33 0
-11 -73 -45 0
-12 -49 70 0
-74 -20 25 0
-61 -28 53 0
-10 70 -38 0
-27 -73 13 0
59 50 -36 0
-43 -51 58 0
51 13 73 0
3 -30 12 0
48 56 59 0
73 65 27 0
54 13 -38 0
13 -21 23 0
-47 -75 17 0
15 21 -45 0
29 -58 -54 0
51 21 -75 0
7 46 -31 0
51 29 -66 0
68 -10 12 0
39 -62 54 0
-72 -1 51 0
44 48 -39 0
-43 -44 -23 0
-23 -68 40 0
31 -59 -63 0
72 28 43 0
-2 44 55 0
-28 -25 45 0
-48 33 -16 0
1 -2 -50 0
40 23 -53 0
11 26 29 0
-42 55 13 0
40 -75 -3 0
-39 12 -64 0
-68 48 39 0
21 -75 22 0
-32 -15 -20 0
2 -6 -72 0
29 45 -46 0
-42 -71 18 0
26 18 21 0
14 8 13 0
-20 -49 -6 0
-44 -69 -42 0
52 -42 43 0
-35 33 19 0
-75 -51 -9 0
40 -21 -72 0
24 16 -75 0
-68 -20 -40 0
-56 9 52 0
63 -48 -7 0
-43 3 5 0
44 73 -42 0
18 -8 38 0
39 33 19 0
-64 75 -43 0
45 -25 -74 0
-45 -30 -18 0
-37 -62 -67 0
-61 -71 -38 0
23 40 -36 0
5 -31 27 0
-68 -1 52 0
20 -53 57 0
15 25 -37 0
-8 -57 10 0
-4 9 -51 0
41 71 -34 0
75 4 -6 0
2 -48 55 0
-65 1 -24 0
-22 -57 25 0
68 -41 48 0
-35 -57 50 0
16 -43 -6 0
-36 44 -9 0
-59 58 32 0
-2 39 -6 0
-42 36 -75 0
12 44 26 0
-54 -67 -8 0
64 -29 24 0
58 71 -39 0
-6 34 -68 0
-57 22 -17 0
-25 -29 4 0
12 -47 -72 0
-71 58 62 0
-15 -73 12 0
49 66 -9 0
-73 31 -19 0
-63 20 3 0
7 41 -22 0
-73 41 36 0
-74 3 -54 0
45 -24 -42 0
-3 -15 -2 0
-42 -32 6 0
17 -44 42 0
-18 -58 4 0
-53 68 -2 0
55 37 25 0
13 -44 -48 0
71 39 -4 0
-64 -56 61 0
-2 17 -4 0
-29 -22 -39 0
-50 63 -26 0
-43 19 -68 0
27 22 42 0
