c Coffinhead hard-core n=75 seed=5 ratio=4.0
p cnf 75 300
31 2 -74 0
-53 -45 -14 0
-23 32 59 0
47 45 -19 0
-10 73 -44 0
40 8 -71 0
74 -11 38 0
57 69 -51 0
59 70 -16 0
30 -52 -46 0
-60 14 -16 0
-29 -63 11 0
72 27 -55 0
-28 -10 1 0
1 70 39 0
-13 -20 29 0
-14 -59 -62 0
-4 -60 72 0
65 -68 -70 0
49 60 -70 0
23 -61 35 0
25 7 14 0
-23 33 8 0
-35 34 37 0
-73 -50 68 0
-25 19 39 0
-1 62 -47 0
57 -35 -73 0
72 33 -40 0
-28 -8 -58 0
57 28 2 0
-58 -46 -72 0
38 -9 59 0
-71 -1 28 0
-17 -69 -55 0
35 -59 -27 0
63 8 -20 0
1 63 40 0
32 71 50 0
6 -74 32 0
50 -45 -38 0
18 32 -13 0
68 24 47 0
13 74 -7 0
11 -9 -71 0
75 -26 -5 0
12 60 -41 0
-20 -69 -22 0
63 -74 10 0
62 26 -66 0
24 -60 13 0
19 -28 -27 0
-41 4 14 0
-50 61 47 0
-6 -73 31 0
73 5 -34 0
-22 -52 20 0
-8 -72 35 0
-41 22 8 0
-56 -53 60 0
41 66 32 0
11 -75 9 0
-30 2 56 0
24 54 -74 0
35 72 67 0
68 23 52 0
51 -56 -72 0
-55 -15 22 0
72 51 13 0
2 18 -6 0
35 23 -37 0
21 8 -46 0
34 -14 55 0
61 23 54 0
-38 -46 69 0
68 24 70 0
-68 28 63 0
47 68 -46 0
-62 25 -42 0
-47 56 -15 0
8 26 -41 0
-4 -3 -2 0
36 47 27 0
2 64 66 0
-73 -37 -25 0
-25 69 18 0
67 -17 -18 0
-29 -57 67 0
-53 -31 -63 0
-14 -73 -15 0
49 -51 39 0
-42 -72 -59 0
21 -46 10 0
29 -17 -75 0
71 -67 62 0
73 -27 54 0
-34 10 19 0
-21 73 -39 0
7 -10 -49 0
38 22 -41 0
65 32 28 0
-49 -30 12 0
13 -54 5 0
-14 30 -52 0
-60 -32 -47 0
22 -43 45 0
35 -19 54 0
-51 44 -26 0
50 49 -75 0
43 -18 34 0
-36 -10 59 0
-1 -54 61 0
70 48 -29 0
-40 72 15 0
66 11 -53 0
-52 -33 -42 0
69 16 -19 0
-15 42 6 0
2 -50 -38 0
-33 12 -11 0
45 65 44 0
12 11 13 0
18 20 64 0
24 -37 -49 0
27 50 73 0
70 -50 64 0
70 69 38 0
-59 -37 68 0
36 -1 -58 0
-50 26 -20 0
15 72 -4 0
-13 -59 -3 0
-31 -51 35 0
7 -60 -38 0
43 49 -62 0
-3 -51 -67 0
39 74 18 0
70 50 -53 0
-51 70 -42 0
63 -55 7 0
7 58 -70 0
4 45 9 0
7 -18 -1 0
24 -17 -34 0
30 -75 64 0
66 65 -57 0
67 -72 31 0
30 56 34 0
7 -28 61 0
-13 -57 71 0
-12 -26 22 0
-32 -6 13 0
-34 53 66 0
69 -28 -72 0
31 33 19 0
26 30 9 0
-66 15 -63 0
44 -14 38 0
33 -67 -17 0
-43 70 69 0
-19 44 37 0
67 -8 -48 0
56 -71 34 0
-50 -45 9 0
70 -63 4 0
-70 -3 -58 0
-69 60 71 0
65 24 66 0
55 12 -70 0
-73 32 -8 0
-37 14 10 0
-37 10 23 0
-45 59 44 0
22 -45 -26 0
-35 -71 -74 0
-72 -25 -28 0
-26 -41 21 0
-52 -37 51 0
55 -56 -38 0
67 -28 -56 0
-3 -31 54 0
-33 68 -75 0
41 75 -23 0
-29 -74 -38 0
-40 -71 28 0
-65 54 33 0
-24 50 -66 0
-74 51 41 0
-63 -33 -21 0
24 -4 -69 0
25 35 -62 0
73 -62 58 0
-59 -70 -32 0
71 48 65 0
49 19 70 0
49 69 -56 0
37 -60 19 0
52 -31 28 0
32 14 5 0
-36 -15 35 0
3 59 36 0
-1 3 -48 0
-53 -58 -60 0
38 -12 34 0
67 -28 -11 0
75 6 -12 0
-55 26 -60 0
57 6 3 0
15 10 30 0
61 -60 20 0
25 7 -70 0
-3 75 15 0
-67 49 -32 0
20 34 58 0
-26 -46 30 0
24 -4 12 0
11 -65 32 0
26 -59 13 0
-5 74 -14 0
3 52 69 0
-6 -34 2 0
-24 68 -6 0
10 -13 41 0
-2 22 43 0
-19 29 43 0
56 45 23 0
-55 38 -35 0
45 -30 23 0
63 -33 5 0
-58 -12 59 0
40 71 -27 0
-69 -38 -55 0
-1 -69 -37 0
-12 70 49 0
-2 -44 6 0
8 62 -45 0
62 -63 -75 0
-25 6 -28 0
24 29 -32 0
18 70 75 0
74 69 36 0
-6 -54 61 0
71 57 -21 0
-47 -9 63 0
-42 -41 60 0
47 -57 49 0
64 -25 -29 0
-60 64 -16 0
48 -67 71 0
-28 17 -23 0
25 65 16 0
-54 -10 11 0
22 10 74 0
-21 -29 64 0
-35 -29 21 0
25 -57 61 0
40 36 11 0
49 -8 35 0
-55 -14 13 0
20 29 -10 0
-24 -16 -67 0
-70 -9 62 0
61 -37 -2 0
-27 -62 10 0
68 6 59 0
-34 54 -29 0
40 74 1 0
13 -3 -72 0
72 59 14 0
48 25 -41 0
26 2 -71 0
65 69 38 0
45 -66 7 0
26 -27 -37 0
45 48 -4 0
40 50 -9 0
68 -51 -24 0
16 -4 -26 0
-31 -66 -47 0
39 -4 28 0
-51 7 12 0
38 13 53 0
62 -16 -48 0
-37 -32 -45 0
7 16 -36 0
-23 -41 2 0
11 -38 8 0
53 -45 -56 0
-21 -1 -68 0
-13 -55 1 0
39 -72 -16 0
-70 -50 -30 0
21 29 -8 0
7 28 37 0
54 37 -34 0
26 -9 -15 0
31 18 -45 0
-18 -9 -28 0
-15 66 4 0
-71 68 -69 0
