c Coffinhead hard-core n=75 seed=31 ratio=4.0
p cnf 75 300
-48 -43 21 0
-41 17 -23 0
-58 40 -5 0
-32 -8 50 0
28 12 -47 0
-14 -25 1 0
-23 41 33 0
-3 14 65 0
18 17 2 0
-49 -14 -25 0
-74 -41 13 0
-45 8 59 0
70 -43 66 0
-73 61 8 0
-10 -51 38 0
-3 -62 43 0
29 -22 2 0
18 -66 31 0
47 -37 45 0
-36 -26 -58 0
19 -25 23 0
-54 69 -37 0
-29 -40 48 0
13 41 -9 0
-60 10 39 0
8 51 -38 0
-41 -58 52 0
49 -68 42 0
-67 -63 13 0
-11 -50 -72 0
46 28 19 0
-60 56 10 0
-49 -38 -29 0
54 -13 -27 0
-50 -5 46 0
27 6 54 0
-26 -64 -18 0
46 -6 43 0
-17 -40 75 0
-13 -45 -8 0
-66 74 43 0
-9 23 -21 0
-68 25 64 0
37 -5 -41 0
36 -1 -6 0
35 -62 23 0
-4 -65 52 0
38 8 21 0
56 -64 -12 0
41 62 63 0
5 60 37 0
5 9 20 0
62 25 3 0
55 16 46 0
29 -68 34 0
18 59 60 0
-50 -67 -4 0
-62 12 -25 0
-36 40 -28 0
-22 -34 -43 0
63 -65 -12 0
24 -12 -59 0
-23 -63 -67 0
56 29 -3 0
51 17 -62 0
58 -2 -59 0
12 -59 -20 0
-69 72 28 0
-16 -14 -3 0
-11 20 29 0
-31 -35 12 0
40 39 46 0
-73 -20 60 0
37 68 75 0
5 45 -42 0
27 -43 -41 0
35 74 20 0
24 32 62 0
52 -71 65 0
31 20 42 0
-9 11 57 0
-24 -34 28 0
49 -22 70 0
-45 -56 -74 0
9 8 75 0
11 -37 55 0
-69 28 -66 0
42 11 44 0
-6 63 11 0
25 -47 5 0
-47 26 -13 0
5 68 -9 0
-5 9 -53 0
-52 -15 -70 0
27 -42 70 0
41 50 -20 0
-7 -3 57 0
-4 71 50 0
-69 21 22 0
-69 -64 -19 0
38 -71 75 0
38 62 37 0
-36 -39 -64 0
-47 73 34 0
-3 2 -38 0
-13 20 -14 0
-27 -26 -2 0
-33 -62 46 0
-28 33 -10 0
-46 -59 3 0
-4 71 32 0
15 37 56 0
15 -75 16 0
14 -56 -60 0
-20 -44 -3 0
-28 -73 -70 0
-35 -58 -57 0
-50 32 -34 0
61 -25 53 0
24 -50 -19 0
-48 -64 -16 0
32 6 14 0
-53 63 27 0
-28 -61 -64 0
35 -7 -72 0
-9 71 45 0
-2 40 48 0
-11 -73 17 0
-11 -67 -24 0
39 -49 53 0
60 35 2 0
-42 3 -32 0
34 -52 45 0
72 -17 22 0
34 -56 18 0
-73 70 59 0
-22 49 15 0
57 18 -14 0
-27 13 -66 0
-14 17 -21 0
60 53 -35 0
-51 -17 54 0
-52 -1 37 0
-11 63 -54 0
-40 71 52 0
-37 21 -14 0
10 -74 -65 0
25 73 -45 0
62 -59 54 0
-58 -62 -15 0
-67 71 -73 0
36 -40 -8 0
-70 -28 -25 0
-40 55 -10 0
72 -67 58 0
62 51 -58 0
23 52 -57 0
18 29 -11 0
-40 3 -58 0
-62 -63 48 0
10 -14 -42 0
2 -21 -16 0
-51 16 70 0
-38 -27 -45 0
-27 16 -64 0
-18 -73 57 0
-39 -55 -59 0
71 -2 -3 0
-43 -18 -73 0
16 -21 12 0
-17 -66 8 0
17 18 -50 0
-74 59 24 0
-71 9 -18 0
12 -70 -41 0
-75 -70 31 0
-75 31 -59 0
55 -17 2 0
46 -41 -64 0
42 -19 44 0
13 -2 36 0
-37 -53 31 0
-8 48 65 0
-8 -71 -55 0
-63 -13 -39 0
30 72 15 0
52 57 -28 0
44 -6 -57 0
35 40 62 0
-53 62 -66 0
29 7 -15 0
-23 74 24 0
-9 -17 15 0
-13 -66 -42 0
-13 34 -22 0
-7 44 65 0
60 -47 -32 0
47 -68 -48 0
10 17 47 0
31 29 14 0
23 -52 18 0
-72 -27 51 0
42 -20 -69 0
3 -58 -11 0
34 57 54 0
42 -45 -24 0
8 65 -2 0
-33 68 -44 0
-48 -45 -15 0
26 -40 61 0
43 49 16 0
28 -24 -49 0
11 -22 -25 0
-6 -43 49 0
68 60 74 0
22 54 -17 0
28 9 -18 0
-37 -44 51 0
-49 9 -43 0
47 25 -27 0
14 75 -41 0
39 68 -10 0
-54 -27 48 0
-71 21 72 0
-20 13 16 0
-35 55 -30 0
-53 -16 -12 0
-54 -12 -41 0
16 42 -33 0
53 -6 9 0
-17 19 -12 0
-50 25 -64 0
60 56 74 0
30 60 -69 0
68 34 -72 0
-56 -1 11 0
62 -43 -70 0
-42 43 -62 0
-1 -13 -58 0
-33 38 -75 0
71 -36 18 0
-25 28 58 0
64 -8 29 0
-56 -4 8 0
-69 18 9 0
-42 -19 -67 0
69 -49 47 0
-25 -12 -19 0
35 -50 -37 0
8 69 26 0
29 -50 64 0
-15 -48 -50 0
61 59 -9 0
-40 -14 -66 0
36 -46 -4 0
-33 18 -65 0
63 -57 -44 0
-70 7 71 0
75 54 72 0
43 -41 30 0
13 -46 -17 0
-22 -14 -15 0
59 68 -13 0
46 52 12 0
-32 -64 48 0
-36 -44 27 0
67 -41 -17 0
25 -27 -60 0
57 25 -74 0
37 -55 58 0
64 6 21 0
24 1 -31 0
26 60 -45 0
-48 -54 4 0
-55 61 6 0
2 51 -62 0
-62 46 -36 0
9 74 -44 0
-10 49 -24 0
-67 17 23 0
44 -73 6 0
22 30 29 0
31 -59 -10 0
-57 14 -38 0
47 20 -15 0
-68 15 -39 0
-42 65 1 0
57 -39 -64 0
-16 -19 67 0
39 -28 42 0
29 -11 -4 0
-32 43 -25 0
-40 71 -56 0
-40 -74 -55 0
59 67 41 0
-8 51 -52 0
38 2 68 0
-56 -7 9 0
73 60 33 0
-49 37 -24 0
