c Coffinhead hard-core n=75 seed=21 ratio=4.0
p cnf 75 300
63 -27 24 0
-45 -31 -20 0
-63 42 -47 0
15 50 21 0
-75 34 -69 0
7 72 59 0
66 7 42 0
66 -23 1 0
-3 -36 64 0
59 61 68 0
-67 -50 -65 0
-35 -61 37 0
-21 -58 -8 0
58 -43 53 0
-20 75 61 0
20 74 -62 0
-70 21 34 0
-72 49 -36 0
-63 -67 68 0
-71 54 -62 0
67 -24 -35 0
30 -43 -14 0
22 11 -3 0
-64 -73 66 0
16 -62 -49 0
-56 34 22 0
27 41 -73 0
-36 -59 -53 0
-63 -17 43 0
-72 41 37 0
-19 -28 -43 0
2 71 -35 0
-14 -42 17 0
-71 -24 14 0
-73 22 -10 0
68 31 -73 0
-5 15 49 0
-15 65 -71 0
-65 67 5 0
8 -54 -29 0
-1 22 73 0
-45 -38 62 0
60 -44 -8 0
13 -28 -67 0
-59 64 -75 0
-9 -34 23 0
-20 -19 61 0
-20 -60 -5 0
-49 59 24 0
68 67 -19 0
-45 4 -8 0
-74 61 -15 0
29 -38 37 0
72 -75 60 0
-61 13 22 0
-35 37 -29 0
-18 -3 35 0
-26 -1 43 0
2 41 40 0
-46 -27 6 0
-4 74 28 0
-4 13 20 0
-64 5 70 0
-56 51 -59 0
54 1 -57 0
-50 -66 73 0
73 37 51 0
63 -14 -45 0
53 16 56 0
-8 46 -17 0
-26 -12 4 0
-53 -30 17 0
13 67 -69 0
-64 -7 -34 0
-33 -3 36 0
-43 -26 -20 0
-19 -61 26 0
-53 -37 4 0
-67 -60 22 0
-71 59 -47 0
-45 25 -42 0
16 19 -32 0
-42 15 -25 0
-34 35 -9 0
-16 31 -32 0
33 -41 1 0
-40 62 -16 0
27 -43 67 0
68 3 -11 0
-45 -75 -61 0
-36 -2 19 0
-6 -33 -50 0
24 74 20 0
1 33 70 0
26 -41 -72 0
-59 24 52 0
26 21 67 0
-30 75 -24 0
68 -11 -20 0
24 -68 45 0
-48 23 -72 0
-71 53 -24 0
-74 -35 -13 0
58 -59 -27 0
-34 -35 64 0
47 30 18 0
-64 -23 24 0
-2 27 -5 0
-31 45 -42 0
-5 2 -16 0
-14 -47 -54 0
47 -49 28 0
-73 -17 -8 0
-24 15 -65 0
20 39 47 0
-44 24 -66 0
37 -25 -51 0
-71 44 -36 0
72 -22 46 0
-40 -17 -20 0
-18 64 -45 0
-67 -34 36 0
67 49 13 0
11 -72 58 0
-35 -48 19 0
-67 23 60 0
-51 -40 -39 0
-71 51 72 0
48 -10 -37 0
44 73 -67 0
3 -70 13 0
53 -7 -32 0
-9 6 67 0
63 20 -24 0
-52 -47 -32 0
44 60 -47 0
-42 5 35 0
-16 59 -53 0
65 -53 7 0
-18 47 16 0
-45 -51 -67 0
-17 49 9 0
70 -25 -42 0
48 13 -12 0
43 -46 58 0
42 61 -15 0
-55 41 42 0
41 50 -33 0
-60 -29 -4 0
-64 35 -43 0
27 50 35 0
42 10 -43 0
33 46 4 0
46 7 35 0
-51 -16 40 0
41 -11 34 0
-32 -52 -46 0
41 -59 -70 0
7 3 -35 0
18 34 6 0
-16 33 -29 0
31 19 -61 0
75 -69 46 0
-47 -32 61 0
5 7 28 0
16 -30 -31 0
53 -48 -5 0
-42 57 -53 0
5 -49 14 0
11 36 -1 0
-43 -59 74 0
73 70 -36 0
-53 -46 69 0
-7 74 52 0
-8 56 -54 0
21 50 33 0
-28 -29 12 0
52 27 29 0
-59 29 20 0
74 20 -30 0
-28 45 -8 0
68 65 -18 0
14 -42 -15 0
61 18 49 0
41 -43 -62 0
-31 -16 -43 0
-44 60 39 0
-39 -62 -49 0
54 -70 45 0
-9 -70 58 0
-44 72 56 0
70 -4 61 0
-42 72 21 0
-25 43 -67 0
10 -26 -63 0
46 13 61 0
-51 -27 -19 0
-14 -53 22 0
12 28 -36 0
-11 -28 69 0
46 -28 -65 0
4 -75 -23 0
-4 60 14 0
21 -53 1 0
-58 -55 20 0
-31 23 1 0
13 -50 -47 0
68 49 27 0
-51 60 36 0
-60 -50 3 0
-43 19 21 0
-61 -13 -26 0
-59 58 48 0
9 -51 -64 0
-32 -69 -74 0
-60 52 -72 0
-5 24 -2 0
-19 25 59 0
-46 31 -36 0
-38 45 29 0
-50 -43 -22 0
-74 20 -24 0
-52 58 -33 0
-51 -55 -14 0
55 -30 12 0
55 -70 -29 0
44 64 -13 0
1 -30 6 0
63 74 -4 0
58 -52 -71 0
36 -61 -57 0
37 28 -52 0
-19 60 -27 0
-60 -27 -75 0
41 64 48 0
-14 42 -15 0
-53 73 28 0
-35 43 -69 0
-74 44 13 0
18 -68 -51 0
-56 -43 -21 0
58 -22 -69 0
20 54 24 0
-31 -63 35 0
-73 40 50 0
-56 71 43 0
-1 16 -42 0
47 -61 17 0
-69 12 58 0
8 -13 53 0
13 43 -39 0
29 34 -33 0
-9 57 21 0
20 -60 -14 0
-4 27 -53 0
17 30 56 0
-47 67 -4 0
53 60 8 0
-43 -69 65 0
13 -43 -37 0
-72 -11 56 0
-49 -10 9 0
-16 9 28 0
52 17 43 0
41 71 -14 0
-33 -59 44 0
33 20 -17 0
2 -4 50 0
-3 -42 -1 0
59 -21 -56 0
28 -31 34 0
-74 -54 -21 0
-71 -32 -75 0
30 7 -5 0
-13 11 -65 0
31 6 -53 0
15 -7 -41 0
7 -45 29 0
-70 -31 8 0
-59 63 -24 0
-13 -24 -40 0
58 -66 -28 0
22 -62 -66 0
-57 47 19 0
-10 56 27 0
35 -33 16 0
46 -32 -41 0
3 47 -52 0
-30 19 -9 0
22 -60 -2 0
41 -68 -3 0
2 29 30 0
62 -2 15 0
-19 -30 -20 0
25 32 -2 0
-19 -2 7 0
4 -6 -45 0
-41 -33 37 0
45 -61 66 0
-43 -50 27 0
