c Coffinhead hard-core n=75 seed=22 ratio=4.0
p cnf 75 300
43 1 20 0
20 8 43 0
-32 62 -49 0
41 10 -15 0
-22 -74 -30 0
20 -8 -62 0
-39 -5 -56 0
-36 -16 -59 0
-1 31 9 0
-20 -57 -69 0
-63 -60 -64 0
-66 -67 6 0
-63 -38 -11 0
-10 26 70 0
46 -45 -69 0
-51 59 18 0
-40 7 75 0
69 -6 45 0
-31 37 -22 0
-43 27 65 0
2 -20 -8 0
-63 44 36 0
40 -73 -70 0
53 26 -19 0
-49 -62 18 0
28 -6 63 0
4 -52 -35 0
-8 52 -75 0
8 -18 -60 0
-73 -66 6 0
-75 -31 35 0
-13 -32 -5 0
-2 74 -69 0
61 1 -15 0
-59 -75 -3 0
-8 -40 -44 0
-62 -22 -30 0
59 -62 17 0
-42 36 -54 0
23 -67 -38 0
19 -67 74 0
-74 71 -59 0
37 -7 50 0
-10 20 -4 0
45 66 -61 0
-32 36 -60 0
-13 -60 -42 0
39 -63 42 0
3 31 -2 0
-33 9 -11 0
-4 -31 -18 0
-17 68 16 0
16 -22 -5 0
2 28 55 0
-54 -63 59 0
-50 46 -55 0
-18 -38 21 0
35 30 57 0
-8 13 -59 0
21 -62 22 0
25 -58 36 0
51 69 13 0
37 -46 67 0
-2 14 68 0
-36 -46 -51 0
-39 5 35 0
46 27 -36 0
-52 -7 -49 0
49 54 -30 0
4 -46 -59 0
7 15 72 0
-34 -68 8 0
-57 59 64 0
-46 17 -23 0
-71 -43 17 0
30 13 -19 0
-43 34 12 0
26 1 42 0
6 44 -11 0
-67 -43 -24 0
46 -26 -9 0
34 -70 73 0
64 -21 6 0
-12 31 33 0
28 -52 -73 0
35 52 1 0
-45 -65 -9 0
64 75 -28 0
-8 64 51 0
71 -45 -17 0
-22 26 71 0
-1 23 59 0
5 12 21 0
-47 37 -14 0
56 -39 -14 0
4 -53 -23 0
3 -29 -71 0
26 -2 -10 0
-57 5 -63 0
56 -66 -44 0
-56 -11 -68 0
66 -2 -1 0
-59 -70 36 0
-62 42 -38 0
26 55 -5 0
54 -48 -8 0
23 -4 -54 0
52 -13 -37 0
51 75 64 0
63 -28 21 0
9 8 -65 0
59 -40 30 0
12 54 22 0
-57 -24 55 0
67 69 58 0
6 -24 -14 0
14 29 -33 0
51 19 61 0
-49 29 -41 0
-73 21 75 0
15 16 -34 0
52 -37 7 0
65 -70 21 0
-53 52 44 0
12 26 18 0
-55 58 -66 0
-11 -13 -58 0
7 18 -27 0
-12 71 -60 0
74 44 55 0
11 24 29 0
67 -37 -56 0
-22 -20 45 0
12 -39 -69 0
-44 8 33 0
75 -41 53 0
55 -64 74 0
-23 13 -73 0
53 -52 -8 0
-58 -35 -8 0
57 65 41 0
57 -49 -75 0
-11 43 -75 0
70 -42 -36 0
1 46 35 0
10 -34 4 0
24 -29 4 0
-64 63 36 0
25 -66 35 0
48 -60 -21 0
11 -21 -62 0
12 -75 -34 0
43 26 28 0
-17 -73 -64 0
-22 -9 -39 0
-40 19 7 0
56 -53 -51 0
-44 35 -9 0
-4 42 60 0
-20 9 10 0
27 65 -14 0
-32 31 23 0
33 -42 -72 0
-24 23 40 0
74 -69 57 0
-56 39 -5 0
-31 -10 36 0
21 -42 66 0
41 66 -15 0
-69 29 -75 0
-2 28 -31 0
31 -64 -48 0
35 33 -3 0
-33 36 61 0
58 66 56 0
40 27 -7 0
28 22 -4 0
-33 34 -2 0
-43 31 -62 0
73 -4 22 0
-63 -33 70 0
40 75 -6 0
-55 31 72 0
11 65 33 0
-38 50 46 0
70 17 -41 0
6 41 72 0
-67 75 -43 0
60 -59 33 0
-5 30 19 0
46 26 75 0
73 -20 43 0
-52 -53 -47 0
-27 55 18 0
35 66 31 0
-61 -45 56 0
75 20 31 0
34 -52 -44 0
28 14 -52 0
60 67 32 0
34 72 -66 0
-65 34 -23 0
34 -68 -54 0
-57 -22 7 0
-43 -29 23 0
50 -8 65 0
4 64 39 0
-36 60 -56 0
-66 -64 50 0
-55 73 -30 0
68 43 -13 0
69 71 -60 0
47 -26 1 0
-22 -35 -46 0
-42 50 26 0
-15 14 50 0
2 13 -14 0
30 -2 60 0
57 18 53 0
-48 69 9 0
7 2 15 0
-44 -72 -17 0
34 -11 23 0
-47 70 -55 0
47 -64 28 0
-74 -40 -62 0
31 -62 14 0
-25 -63 -2 0
32 -19 20 0
-70 69 44 0
-73 -59 -63 0
69 38 59 0
69 -19 40 0
10 -2 -69 0
5 -29 23 0
4 -50 21 0
18 26 27 0
15 64 -70 0
6 -24 -12 0
29 32 -19 0
-10 45 -44 0
43 58 5 0
-64 -57 72 0
-44 60 36 0
-59 -33 -45 0
65 6 67 0
72 -26 74 0
-61 37 -29 0
13 -49 12 0
74 -9 73 0
8 -7 45 0
42 15 8 0
36 64 3 0
-75 -23 6 0
-35 -51 29 0
25 64 -30 0
39 66 -19 0
-16 48 -70 0
48 26 69 0
-45 71 51 0
-64 52 51 0
11 -19 -62 0
-53 45 -25 0
-24 48 33 0
74 50 26 0
64 27 71 0
-49 -63 -69 0
7 1 35 0
33 -21 -61 0
-66 50 -30 0
46 62 -20 0
-38 34 -63 0
17 -75 51 0
-15 28 -45 0
-55 -30 -13 0
1 -11 -42 0
-44 -16 54 0
-51 -48 26 0
9 -23 55 0
52 19 -71 0
47 -53 -66 0
75 66 48 0
53 6 -10 0
24 6 25 0
23 -41 57 0
-51 57 -38 0
63 71 -49 0
45 -52 16 0
15 -7 36 0
41 26 50 0
-55 -58 22 0
19 -71 47 0
57 -51 18 0
24 -43 -21 0
29 64 -45 0
-44 -35 -68 0
24 19 8 0
-45 -12 60 0
19 -64 73 0
-40 43 12 0
