c Coffinhead hard-core n=75 seed=4 ratio=4.0
p cnf 75 300
-70 -33 57 0
64 -56 73 0
31 -25 -23 0
4 -17 14 0
-4 -43 -1 0
18 20 52 0
65 66 -42 0
28 11 -23 0
48 73 40 0
-75 20 -26 0
-64 73 11 0
18 63 45 0
-16 51 27 0
50 -54 -64 0
-14 48 -41 0
35 -67 50 0
-12 -38 -40 0
-12 4 24 0
-48 6 -61 0
36 2 35 0
49 -58 -22 0
-47 -1 -46 0
-27 -45 -75 0
-73 -72 -52 0
-63 -66 -38 0
1 -47 32 0
14 -52 9 0
-64 -17 -73 0
12 7 -34 0
52 24 8 0
64 -51 -9 0
65 25 13 0
-54 -41 66 0
-24 5 33 0
70 -48 -63 0
-54 43 60 0
20 32 -12 0
18 57 35 0
-45 -12 70 0
43 -44 26 0
-44 -12 28 0
15 -50 16 0
32 62 28 0
-34 -28 -23 0
44 -50 -14 0
73 25 68 0
-32 -13 5 0
15 1 20 0
-33 51 -16 0
40 -13 -35 0
-23 70 -32 0
6 75 -74 0
-14 -60 75 0
53 55 20 0
21 -65 -19 0
33 -27 -57 0
49 -53 -34 0
56 23 9 0
-5 -16 3 0
6 75 -68 0
-1 25 37 0
34 -56 42 0
46 -32 71 0
10 7 -42 0
-61 41 -26 0
23 -21 1 0
-66 -74 44 0
34 -64 -42 0
60 62 22 0
7 9 20 0
-69 5 -11 0
-68 8 62 0
-42 -58 28 0
59 -71 44 0
-57 67 -43 0
-17 -33 -4 0
-14 44 -38 0
-40 42 29 0
46 6 -7 0
38 64 -54 0
29 -72 62 0
-54 -41 -31 0
-64 8 -37 0
-42 61 29 0
-29 15 -20 0
-48 -12 25 0
67 -40 -75 0
-21 -27 57 0
53 11 8 0
-20 -26 -36 0
-18 -69 -15 0
53 -75 -22 0
15 -34 42 0
23 18 -74 0
17 26 13 0
44 34 -17 0
30 -1 -63 0
62 2 1 0
-61 -64 20 0
63 -37 30 0
-4 -30 -21 0
-37 -41 11 0
71 3 46 0
53 -52 -54 0
-32 -66 65 0
-39 65 11 0
-32 -4 36 0
10 -30 -27 0
49 -7 9 0
46 66 25 0
-13 -15 61 0
53 41 59 0
14 10 56 0
61 43 58 0
-3 19 -22 0
-32 53 72 0
32 11 -5 0
8 71 -58 0
27 -4 26 0
-28 -71 56 0
33 8 12 0
62 46 -71 0
6 -13 57 0
58 -31 4 0
-35 -8 74 0
-48 36 -2 0
11 61 -51 0
48 -63 -55 0
58 -35 4 0
-69 70 -49 0
-57 28 -14 0
-40 -35 26 0
30 44 55 0
-18 -31 60 0
19 -36 -70 0
-3 7 -62 0
21 32 46 0
63 30 5 0
-73 -69 -15 0
7 31 -37 0
66 11 -18 0
-36 43 6 0
24 22 2 0
-53 72 -54 0
34 -72 50 0
1 75 45 0
32 -56 14 0
43 2 13 0
67 48 75 0
75 51 6 0
1 3 55 0
13 48 15 0
-32 -9 59 0
72 -54 -9 0
-12 -21 57 0
-23 32 -41 0
8 -31 71 0
7 -25 26 0
-49 -67 74 0
-21 -74 31 0
21 -14 74 0
-6 13 35 0
-11 -3 -25 0
2 42 -31 0
44 19 42 0
-30 28 -7 0
34 -3 18 0
61 -36 7 0
48 -67 -52 0
-65 -10 31 0
-10 41 -75 0
-74 -69 -16 0
43 -25 -21 0
44 -7 -20 0
11 44 -69 0
-32 18 59 0
-25 -55 -60 0
-60 -26 -62 0
-4 46 38 0
31 67 39 0
-10 -20 -16 0
51 11 24 0
-55 27 -12 0
9 34 -40 0
-68 -14 -56 0
-19 -36 72 0
-18 -26 68 0
-42 47 -60 0
-26 -14 12 0
28 6 61 0
1 -72 49 0
-56 -14 -69 0
-20 26 -13 0
-58 72 51 0
-2 -7 50 0
-37 48 66 0
-52 33 67 0
-64 -22 -26 0
-25 6 45 0
11 -35 63 0
26 41 -3 0
-29 48 -56 0
38 -23 32 0
-63 -44 14 0
7 -1 -36 0
-12 -69 3 0
59 -24 26 0
-24 50 6 0
-13 -58 -40 0
74 -31 4 0
-40 72 22 0
59 -26 63 0
24 -57 25 0
34 -10 61 0
9 -7 -6 0
24 -75 32 0
-62 -73 -14 0
6 -28 21 0
-44 -45 19 0
-46 -5 -7 0
28 -60 -65 0
4 46 73 0
-51 -64 27 0
-69 35 -72 0
-64 39 -30 0
61 73 -46 0
-17 73 7 0
-32 -67 -13 0
-50 38 12 0
61 -42 66 0
53 15 -45 0
12 -26 6 0
30 -22 69 0
-48 -74 9 0
-73 53 -74 0
-11 -19 66 0
-74 -53 4 0
-5 41 -7 0
-18 -11 -47 0
-25 50 -51 0
-10 -60 -18 0
32 -43 53 0
-28 13 20 0
-41 72 -44 0
-34 30 -23 0
-75 -51 -47 0
-19 70 9 0
-64 75 62 0
-60 13 -34 0
-38 57 -18 0
50 -46 -41 0
-8 9 -2 0
17 58 55 0
15 68 -16 0
-40 -62 56 0
-61 -43 34 0
-24 53 -6 0
63 -68 66 0
32 -19 75 0
-31 -71 -13 0
26 -59 -33 0
-29 28 62 0
70 75 -47 0
-17 24 47 0
40 54 -65 0
53 21 22 0
35 23 5 0
35 -47 29 0
41 36 -34 0
45 9 37 0
-54 -2 -1 0
-10 71 23 0
5 29 -46 0
36 24 -25 0
67 -27 20 0
72 30 -24 0
-9 18 -43 0
34 56 -51 0
-24 69 3 0
-57 73 -31 0
-3 20 62 0
68 -57 -10 0
-1 -35 52 0
-32 -34 -23 0
-21 48 -67 0
-72 -8 -12 0
-7 54 -59 0
-11 -58 -49 0
2 -41 -6 0
-7 -9 44 0
4 -53 -51 0
-1 16 43 0
18 -35 21 0
-61 64 66 0
-7 -39 -4 0
74 69 -30 0
48 -15 -36 0
48 -24 51 0
24 32 -38 0
56 -47 -11 0
