c Coffinhead hard-core n=75 seed=27 ratio=4.0
p cnf 75 300
-54 -35 -32 0
33 8 16 0
8 69 -5 0
21 -40 -30 0
52 54 -27 0
59 22 -55 0
25 -8 60 0
9 -22 2 0
-66 -11 -19 0
-32 67 -45 0
-11 18 -69 0
74 -31 -50 0
31 -67 58 0
-59 -27 69 0
-69 -49 45 0
15 -48 -44 0
-66 65 -28 0
8 -38 33 0
49 -6 -43 0
-1 -35 -4 0
-51 -50 -4 0
-43 15 -60 0
12 20 -27 0
59 -29 -65 0
-31 22 70 0
-62 50 71 0
69 -18 -59 0
30 -23 59 0
19 40 6 0
25 23 60 0
-3 74 42 0
7 -56 -45 0
-14 -63 2 0
-33 48 -12 0
65 40 39 0
38 -68 -75 0
-55 -60 74 0
64 -70 -53 0
-8 29 -27 0
30 -33 26 0
-36 5 -54 0
-22 -9 -45 0
-47 38 -50 0
-25 -6 21 0
-70 29 -33 0
-51 61 -50 0
69 -18 -65 0
-50 43 46 0
-38 6 75 0
69 45 -59 0
74 26 1 0
54 59 4 0
41 -5 -69 0
37 1 75 0
-9 46 5 0
38 -54 -63 0
51 45 -33 0
-70 34 5 0
-64 13 -72 0
-48 -8 -7 0
-35 -4 -57 0
27 14 -6 0
-30 -13 -25 0
-15 54 25 0
-58 -64 -44 0
-2 41 -16 0
17 -23 59 0
72 66 -53 0
34 36 65 0
-62 -27 -29 0
60 -10 74 0
4 46 -47 0
-11 -17 69 0
-75 17 -34 0
68 -11 -73 0
-9 20 -44 0
69 32 -71 0
43 51 -26 0
-24 23 -20 0
26 -63 -56 0
-28 -4 14 0
19 -16 30 0
52 -66 -32 0
-59 -68 66 0
-2 74 -49 0
22 -44 24 0
47 -4 -32 0
47 22 30 0
34 -9 -51 0
-1 -63 5 0
-2 44 -61 0
49 -19 60 0
-46 35 19 0
48 33 37 0
18 16 34 0
-35 69 -11 0
-72 -27 50 0
-69 17 -7 0
-61 -46 58 0
-10 59 -4 0
-35 -56 -68 0
10 62 -34 0
69 47 -49 0
67 43 -57 0
-48 16 -7 0
-67 74 -33 0
21 49 -57 0
52 -72 -36 0
12 -1 -41 0
56 -44 8 0
5 71 -66 0
-6 -59 55 0
-64 -65 24 0
-15 -55 -25 0
-25 -49 34 0
63 64 -8 0
61 66 72 0
42 26 8 0
44 34 -24 0
73 46 67 0
53 -7 25 0
50 -22 52 0
-68 -32 31 0
-69 52 42 0
-21 -18 -55 0
-17 -70 43 0
36 39 -14 0
71 -29 36 0
-70 -6 1 0
45 -18 -53 0
-27 39 -11 0
-59 42 51 0
46 19 -63 0
-16 44 48 0
-38 -4 37 0
12 15 45 0
-53 -62 -10 0
-55 -52 -32 0
-3 -59 37 0
-67 -17 66 0
-43 55 75 0
7 -25 66 0
-6 49 -8 0
-61 35 -58 0
19 7 34 0
-72 67 -68 0
48 37 33 0
59 -4 24 0
21 -75 28 0
-11 40 61 0
33 48 -19 0
50 -39 45 0
17 -24 -53 0
59 8 68 0
-17 -74 35 0
-61 -8 59 0
68 -48 3 0
-38 54 61 0
-36 -35 -13 0
45 -63 -17 0
-14 9 24 0
-17 -31 -20 0
-48 12 27 0
-10 -25 49 0
20 36 -51 0
-22 74 -12 0
-60 -15 -41 0
63 -40 -28 0
-51 -16 -37 0
-73 58 51 0
21 57 -12 0
-32 -28 -71 0
3 -31 -17 0
-45 73 -29 0
-51 -66 50 0
56 13 16 0
54 -49 -67 0
-39 -62 -25 0
58 -19 -30 0
-10 65 33 0
-33 58 -61 0
75 -23 52 0
65 -71 19 0
55 -49 -19 0
-23 54 -20 0
71 49 8 0
75 58 20 0
-55 -26 -14 0
-62 23 30 0
-38 -24 -11 0
14 7 -20 0
10 -45 6 0
-2 -35 -32 0
-9 -48 -4 0
50 14 -17 0
60 -51 2 0
-2 -28 -33 0
69 -50 4 0
62 40 -13 0
-36 -30 18 0
-33 -4 38 0
-36 56 -64 0
1 -48 49 0
22 -40 23 0
-63 57 62 0
-3 65 8 0
57 -43 11 0
-20 44 -63 0
-17 53 32 0
-75 14 10 0
37 -29 53 0
12 -25 23 0
74 -4 -33 0
34 68 11 0
-15 -72 -73 0
73 71 28 0
-22 -56 -61 0
42 -57 20 0
-46 20 11 0
-11 52 -6 0
12 -75 -11 0
-5 19 60 0
-13 32 75 0
-37 -48 -20 0
-7 -75 -46 0
-48 49 54 0
-41 -7 28 0
-2 -57 26 0
62 41 -32 0
52 -54 -49 0
49 74 30 0
-65 57 53 0
69 -70 2 0
72 -67 -4 0
-26 25 2 0
-15 -22 72 0
-6 -57 -11 0
32 6 16 0
-52 -59 -47 0
22 20 -1 0
2 -55 58 0
-3 67 54 0
32 45 75 0
5 57 63 0
-48 -34 -61 0
48 52 -74 0
-22 -55 72 0
63 65 9 0
7 -22 -21 0
10 70 57 0
34 -32 16 0
30 -7 50 0
-7 -3 62 0
1 11 -56 0
62 -44 75 0
-17 34 49 0
19 -24 4 0
-41 37 -17 0
59 -38 -42 0
58 -8 55 0
-19 -3 60 0
1 -46 -27 0
-50 70 21 0
54 -33 -65 0
-6 -74 14 0
6 72 -23 0
-49 3 -5 0
16 -73 -14 0
58 -48 53 0
67 -34 -12 0
-48 -46 36 0
18 -6 74 0
27 -62 49 0
-14 53 37 0
-31 -41 70 0
10 11 -2 0
-55 -69 -37 0
-70 -33 17 0
-23 -48 -46 0
-37 51 57 0
7 -13 36 0
35 -63 -62 0
-49 38 -26 0
-37 5 -34 0
-18 4 -10 0
40 73 -13 0
72 -50 -54 0
-48 -27 43 0
-52 74 -60 0
15 -38 -4 0
68 25 -7 0
-12 21 -68 0
-4 -25 32 0
28 23 -45 0
66 30 67 0
60 55 -45 0
-52 -2 -61 0
-59 6 53 0
-24 -8 17 0
28 -11 8 0
