c Coffinhead hard-core n=75 seed=43 ratio=4.0
p cnf 75 300
-11 15 -42 0
45 38 49 0
-68 -62 -21 0
-45 58 70 0
28 47 -64 0
64 -54 47 0
-53 -1 -2 0
32 1 -12 0
-42 -19 13 0
-28 -69 -49 0
-51 32 39 0
35 37 -39 0
-43 15 74 0
-62 13 -22 0
-30 25 -14 0
-2 -1 -62 0
52 31 12 0
54 -38 -43 0
63 -31 33 0
-37 60 42 0
51 -49 -72 0
-21 53 69 0
-59 -6 -32 0
-39 -61 -62 0
50 12 44 0
-44 -8 66 0
35 53 -37 0
-57 -68 -40 0
-49 68 48 0
74 49 -4 0
69 -51 55 0
-21 24 -3 0
35 -59 53 0
-38 -55 -12 0
-63 -26 74 0
-58 -3 -43 0
48 -59 -19 0
-55 69 -20 0
16 -39 -14 0
65 -50 48 0
2 27 -50 0
-50 74 -14 0
-1 -59 71 0
31 -74 21 0
43 -55 -33 0
71 -5 -39 0
66 -60 -48 0
-67 -5 -9 0
-25 3 10 0
-70 45 -5 0
-61 -75 -64 0
-24 -44 -29 0
-28 -53 39 0
67 -37 -40 0
-44 -63 11 0
-27 54 -32 0
-44 42 3 0
-71 -67 -23 0
20 -68 -3 0
-26 -29 -21 0
-75 -62 48 0
-15 -6 66 0
1 -6 -41 0
-68 -37 35 0
-69 44 74 0
-44 9 -39 0
-1 -73 27 0
-29 -27 65 0
-26 -44 -49 0
26 73 17 0
38 12 -70 0
69 -15 52 0
-8 11 -34 0
44 -51 19 0
30 34 27 0
-61 53 57 0
-10 25 34 0
-62 41 32 0
19 -58 -8 0
-22 53 -13 0
73 64 -58 0
26 -21 29 0
-21 30 4 0
35 -30 -17 0
-52 49 -18 0
-27 58 40 0
-64 -1 -5 0
8 -49 -35 0
-13 -51 -58 0
6 -63 -13 0
2 -55 -4 0
74 22 -3 0
-19 -74 43 0
-73 -45 11 0
19 -57 -30 0
29 -58 25 0
-4 -1 28 0
6 13 -36 0
11 9 8 0
-63 31 14 0
19 -1 38 0
-33 -11 54 0
39 66 68 0
-34 -28 -6 0
43 -19 6 0
21 -37 -74 0
-47 68 4 0
-24 37 61 0
27 -64 -7 0
-2 13 32 0
-32 50 7 0
-51 30 -12 0
-40 35 -71 0
66 52 10 0
45 -50 40 0
-65 46 -43 0
-41 -68 -55 0
30 44 -11 0
25 54 44 0
-18 -11 -48 0
60 64 -21 0
5 -39 42 0
-74 -56 -23 0
69 -8 75 0
-12 -16 -36 0
-65 58 -3 0
-17 74 24 0
-68 -45 -62 0
23 -40 10 0
28 -51 -15 0
-16 -35 -60 0
41 37 10 0
68 -35 1 0
-42 27 -38 0
-10 -57 65 0
-10 4 -55 0
22 54 53 0
-41 49 44 0
44 -33 49 0
17 -64 -25 0
4 19 -14 0
-65 -50 -43 0
-27 -66 -17 0
-27 -36 -31 0
20 -14 -16 0
-73 -28 62 0
-15 -72 -51 0
44 -73 -50 0
68 -23 46 0
-75 5 46 0
-59 -70 -48 0
67 44 49 0
69 -55 44 0
57 -24 -72 0
75 -15 35 0
-75 37 -12 0
-4 8 -66 0
52 -45 3 0
-74 8 10 0
41 -42 7 0
-72 56 -22 0
21 -45 -28 0
-46 17 -7 0
-36 -65 -45 0
63 -15 -2 0
13 -38 33 0
6 1 -67 0
16 38 -11 0
17 41 -73 0
58 69 2 0
35 59 3 0
43 65 22 0
37 46 45 0
-8 17 -47 0
-64 37 -59 0
-43 -34 -26 0
18 -33 73 0
-16 -57 13 0
-70 11 74 0
-37 -21 12 0
46 -58 31 0
42 -25 31 0
-22 -30 -68 0
73 47 -33 0
-43 -17 -72 0
-45 -64 7 0
18 30 49 0
-27 38 -52 0
61 -65 25 0
58 12 -19 0
-45 -24 -38 0
42 -16 -7 0
-41 -2 27 0
43 -22 62 0
-26 48 -33 0
-29 -54 -38 0
72 -14 -67 0
-39 14 -44 0
32 68 62 0
-67 -54 -32 0
61 -12 31 0
-39 15 44 0
-31 -15 56 0
14 -29 27 0
74 55 -56 0
-8 70 -4 0
66 12 71 0
67 39 -51 0
-35 -46 -10 0
-74 -40 75 0
27 -19 -10 0
-56 73 26 0
49 57 55 0
43 56 7 0
-29 -71 74 0
-63 -47 50 0
51 -54 62 0
26 -34 -35 0
-63 -38 -54 0
72 -2 -31 0
33 35 19 0
-73 63 19 0
5 74 36 0
70 57 -20 0
-59 55 -44 0
23 71 -61 0
-22 -53 -26 0
-38 -58 2 0
-52 -8 -75 0
9 71 -12 0
-39 -41 7 0
-56 -72 -63 0
-13 40 -34 0
-25 36 -55 0
-11 63 50 0
-7 -20 68 0
27 75 -55 0
25 -38 -71 0
-30 41 54 0
-53 52 13 0
-39 -22 -27 0
-8 -54 -57 0
-10 -64 32 0
66 -32 -1 0
41 26 18 0
21 -63 -42 0
-75 -21 -64 0
-65 2 14 0
35 -42 48 0
1 -10 -44 0
32 -66 21 0
69 -19 -46 0
-16 -49 -59 0
60 45 -36 0
35 -57 6 0
40 1 -50 0
22 37 -1 0
-36 30 19 0
-67 74 -7 0
48 -1 13 0
28 7 -12 0
-59 53 -23 0
57 -44 -6 0
-33 -16 -56 0
25 -5 -71 0
-65 -62 -69 0
47 -73 12 0
75 32 15 0
60 -53 -44 0
-26 56 -19 0
-7 -24 15 0
-18 -56 50 0
29 -57 -3 0
-7 48 -39 0
-43 59 -2 0
36 -13 25 0
-69 -72 -34 0
64 20 -66 0
-60 9 -49 0
-75 59 -24 0
-32 22 -74 0
-72 38 -8 0
-61 63 -3 0
47 46 -20 0
-32 46 63 0
32 -51 40 0
-57 -34 -73 0
28 2 46 0
-8 -60 67 0
66 -28 68 0
35 36 -15 0
6 -56 26 0
-29 69 13 0
73 -12 -72 0
-7 -5 12 0
50 -23 13 0
-1 12 -66 0
53 34 57 0
73 58 12 0
-51 -58 34 0
