c Coffinhead hard-core n=75 seed=47 ratio=4.0
p cnf 75 300
-5 50 68 0
-4 31 -17 0
58 -15 -49 0
47 17 -41 0
74 27 -66 0
-69 43 -60 0
6 8 -52 0
-14 -26 -60 0
48 10 -3 0
-55 64 -50 0
-3 -60 -34 0
-30 -64 62 0
-8 -70 -54 0
42 8 -74 0
-51 -61 -12 0
2 -31 32 0
72 13 46 0
34 51 7 0
30 6 59 0
65 -25 -5 0
-37 -21 -30 0
-24 62 45 0
-23 51 57 0
20 57 55 0
-30 -57 -59 0
9 12 -63 0
59 -8 50 0
55 67 8 0
-18 -71 3 0
35 24 73 0
53 46 -58 0
15 -56 -68 0
-21 6 61 0
-58 62 51 0
-21 25 48 0
-56 7 -8 0
-54 -72 -48 0
48 -13 70 0
22 30 -55 0
46 -41 70 0
26 45 -47 0
46 -16 -8 0
-61 -24 9 0
70 -35 -57 0
-2 38 -69 0
-6 -53 25 0
-54 14 -55 0
70 -66 69 0
-73 13 66 0
40 55 -2 0
-24 -23 15 0
-18 40 11 0
-75 42 8 0
42 21 26 0
5 -50 -24 0
72 54 -46 0
-72 -32 -70 0
26 -71 56 0
-2 -28 -51 0
41 69 6 0
-42 18 -33 0
45 32 -64 0
-30 -44 8 0
71 -17 59 0
-69 -27 73 0
-63 -57 -12 0
-61 -67 -6 0
41 23 -32 0
-30 11 -25 0
43 5 -67 0
-59 41 45 0
-27 38 29 0
-10 -57 56 0
-55 74 -24 0
-36 65 -26 0
69 -65 1 0
14 -24 -54 0
-38 1 10 0
-2 -26 59 0
18 68 -24 0
27 36 -71 0
-47 -71 38 0
53 46 4 0
26 64 67 0
-58 -17 54 0
32 -37 58 0
66 53 34 0
-42 46 -44 0
67 19 27 0
14 -54 -45 0
32 -17 23 0
52 54 33 0
-62 -54 27 0
3 26 -17 0
-69 -64 24 0
60 -73 10 0
-4 -74 46 0
37 74 -30 0
70 -40 29 0
-44 -18 57 0
-45 75 11 0
5 -18 31 0
5 -35 -48 0
-4 -58 13 0
-68 -7 1 0
-10 -15 14 0
64 74 -75 0
10 -1 74 0
25 12 -64 0
-8 11 55 0
-33 -21 -66 0
61 -53 54 0
-6 15 7 0
-3 65 -15 0
-58 -16 52 0
42 45 -38 0
-61 68 15 0
63 -53 -24 0
-66 -2 -34 0
-35 -3 67 0
-58 65 44 0
71 21 -36 0
-16 -57 25 0
-56 -70 16 0
-63 -45 -69 0
9 -58 13 0
-52 -42 -36 0
-72 74 52 0
-40 44 54 0
-12 -2 56 0
-35 36 29 0
-33 -4 27 0
56 -58 8 0
-2 -74 8 0
-27 -60 68 0
43 -50 52 0
-49 59 -53 0
16 -43 28 0
66 -57 52 0
34 58 -26 0
-68 4 -47 0
26 -50 3 0
-12 68 26 0
55 -62 -69 0
-50 -56 71 0
-63 -4 -42 0
-53 34 -36 0
-70 -3 -2 0
31 -43 -26 0
-43 44 -61 0
-22 49 29 0
-8 -60 -28 0
-51 31 -59 0
-51 26 -25 0
12 -59 -26 0
-61 72 63 0
-42 71 -69 0
-29 -48 -18 0
-19 56 50 0
56 31 -1 0
-8 -16 -22 0
23 24 -41 0
-5 34 -28 0
-36 13 -6 0
-24 -7 64 0
-65 -67 -59 0
55 -6 -65 0
40 -46 -22 0
39 63 7 0
63 14 13 0
-42 23 -24 0
45 23 68 0
-42 11 73 0
71 73 58 0
-60 -4 43 0
-16 -74 43 0
12 59 52 0
7 41 14 0
-69 4 53 0
-66 22 -25 0
-71 -59 47 0
57 31 -39 0
-14 -69 -28 0
-3 4 -75 0
66 -57 -18 0
-16 -10 75 0
-64 22 -2 0
21 14 15 0
-46 24 -69 0
-74 -70 -30 0
21 34 -59 0
-51 -75 18 0
-9 -21 46 0
-36 56 -6 0
46 12 64 0
-14 15 42 0
-50 47 -56 0
-48 19 61 0
59 -14 27 0
5 -27 55 0
61 -69 64 0
45 29 -70 0
31 -44 -60 0
47 -64 73 0
20 -40 -24 0
20 -71 -50 0
-62 -47 -31 0
62 -31 57 0
64 -72 70 0
73 25 -62 0
-65 -73 -17 0
-68 -25 -60 0
-17 70 -5 0
48 17 63 0
59 12 41 0
-70 -75 -39 0
-54 -72 -25 0
-2 -11 12 0
-51 -32 -73 0
34 73 15 0
-25 -12 -67 0
-29 65 18 0
-50 67 -52 0
7 36 -55 0
40 -75 -33 0
64 -2 69 0
69 40 -51 0
21 -37 22 0
-54 52 1 0
20 -71 13 0
25 -48 34 0
60 -40 51 0
74 -31 1 0
21 23 -30 0
65 -6 -43 0
-6 35 10 0
7 65 51 0
2 7 69 0
45 10 -61 0
29 36 -34 0
65 -18 30 0
57 -58 42 0
43 -19 -21 0
-25 32 4 0
-68 -46 -23 0
23 57 -75 0
18 -42 -5 0
10 59 65 0
-57 -52 -65 0
-58 -4 -75 0
53 11 54 0
-36 6 -15 0
62 56 69 0
-59 64 -32 0
9 56 -22 0
-29 -75 54 0
41 69 -21 0
-12 -33 -68 0
32 -18 73 0
-26 -31 -51 0
-8 -64 -17 0
-60 -69 -13 0
66 21 -26 0
25 16 -7 0
-56 9 74 0
-75 68 -4 0
48 -47 -57 0
69 49 -7 0
-49 65 25 0
-61 2 -72 0
-41 -16 38 0
-7 -55 -4 0
49 28 6 0
-6 -73 -35 0
4 18 73 0
19 -59 -23 0
60 28 64 0
38 73 -4 0
61 -2 57 0
45 26 -18 0
-8 27 19 0
56 24 68 0
-71 18 41 0
66 -41 -39 0
34 -13 73 0
-67 33 25 0
-29 -1 -18 0
-15 -32 35 0
67 -35 21 0
-65 -1 10 0
-24 41 -44 0
-20 50 26 0
-55 -42 24 0
-45 -69 73 0
7 -17 32 0
29 48 -70 0
-61 46 -40 0
-59 11 60 0
7 -66 -60 0
-11 13 -51 0
