c Coffinhead hard-core n=75 seed=12 ratio=4.0
p cnf 75 300
-58 -45 -2 0
28 -74 51 0
-26 49 29 0
-57 -27 16 0
27 -48 -52 0
-15 32 72 0
44 28 29 0
-25 47 15 0
22 8 26 0
-74 56 68 0
-22 -30 44 0
48 73 -38 0
-49 -43 -37 0
-63 2 15 0
-10 13 -8 0
-26 11 58 0
-31 -63 21 0
31 36 60 0
-2 23 45 0
58 67 -43 0
-30 -48 44 0
-48 -72 62 0
23 -10 -25 0
-40 -63 -47 0
18 26 33 0
-36 -58 -1 0
3 30 -21 0
-46 -51 59 0
48 -21 -34 0
-58 73 24 0
61 -49 -63 0
-7 65 -38 0
58 59 -69 0
12 52 -28 0
-59 10 -11 0
56 63 28 0
56 -30 62 0
37 30 54 0
-45 -36 -4 0
-55 47 -20 0
61 -39 37 0
47 -21 -67 0
-63 32 -14 0
-57 34 -3 0
19 4 -72 0
-63 -57 -15 0
-54 1 -4 0
-69 -63 -72 0
51 45 -74 0
-68 -73 -51 0
-60 -28 5 0
-28 -24 -13 0
-23 72 -61 0
-23 -75 38 0
35 70 -12 0
-55 -48 60 0
-74 -3 27 0
74 -63 56 0
45 61 -19 0
6 24 -26 0
48 65 -26 0
46 71 50 0
10 72 20 0
23 7 13 0
-68 -4 -27 0
-57 3 -21 0
2 -74 35 0
53 26 -59 0
24 8 20 0
-12 44 -58 0
2 1 -57 0
38 -55 -5 0
-25 58 -66 0
10 -67 64 0
-64 42 -75 0
54 49 -10 0
31 -49 36 0
48 -46 23 0
26 18 7 0
-32 73 43 0
-66 72 54 0
-10 27 -63 0
-55 -31 -47 0
49 -41 39 0
-33 73 37 0
30 72 -35 0
-34 60 51 0
3 70 39 0
-42 -34 31 0
56 -8 -22 0
-46 -12 -64 0
-31 26 14 0
-7 -13 -54 0
-46 -39 48 0
40 -49 23 0
-1 73 -55 0
-49 43 -70 0
-33 28 -32 0
-39 61 -10 0
-2 33 -41 0
35 62 39 0
-2 20 -26 0
-44 -17 -4 0
-48 8 -69 0
-32 5 -30 0
4 49 -34 0
-13 -53 -2 0
13 30 -69 0
17 32 33 0
-30 57 -21 0
5 -25 -22 0
-45 19 -2 0
59 10 -37 0
68 49 28 0
-55 6 -24 0
44 22 -15 0
-55 -75 -64 0
75 46 -59 0
-58 -41 3 0
33 75 42 0
73 50 60 0
-57 55 52 0
-4 -11 -56 0
-71 -14 23 0
-26 -14 -17 0
11 47 -8 0
-1 52 24 0
-51 -61 -26 0
21 -61 -13 0
-47 22 -44 0
13 30 -7 0
-9 -11 -48 0
14 -34 5 0
47 -75 69 0
3 -15 -36 0
10 -53 3 0
75 -1 -16 0
-12 16 27 0
17 19 25 0
70 19 25 0
46 63 72 0
12 -14 -62 0
-60 46 56 0
-10 59 -57 0
40 -28 -58 0
17 -66 -2 0
48 65 12 0
36 -4 -10 0
61 42 54 0
-5 41 33 0
65 -13 -12 0
9 -63 18 0
37 -29 -42 0
-67 -44 -73 0
74 75 -36 0
16 -59 20 0
-43 -13 72 0
-53 -44 -24 0
-11 -34 38 0
50 -38 -26 0
31 -4 27 0
56 -18 -42 0
9 20 -58 0
19 -71 -11 0
-19 -23 44 0
43 15 -45 0
-49 5 -40 0
42 74 -49 0
57 -53 35 0
-43 45 51 0
-22 -39 45 0
51 26 -41 0
54 48 71 0
-19 31 -51 0
36 15 35 0
8 11 15 0
-30 71 23 0
67 -49 -14 0
61 -12 1 0
-11 -38 68 0
-21 20 68 0
-17 59 33 0
34 -19 61 0
59 14 -22 0
11 -53 -69 0
45 -29 -7 0
51 28 24 0
-30 67 -14 0
43 -60 32 0
-22 10 32 0
11 27 -41 0
55 62 -13 0
-58 7 55 0
-34 -66 -58 0
68 -7 -33 0
-35 -31 -10 0
64 26 14 0
54 -29 -49 0
-71 72 -15 0
-19 -29 35 0
31 21 -41 0
66 62 -65 0
43 -25 17 0
30 -64 -9 0
-25 -14 34 0
-7 17 -29 0
54 -72 -51 0
-72 -18 31 0
-40 62 -49 0
4 -66 -33 0
17 24 21 0
54 27 -71 0
62 7 28 0
62 39 -28 0
3 48 -49 0
-60 -27 22 0
-61 -31 69 0
8 -62 48 0
68 32 5 0
-40 -7 -12 0
-11 -14 -10 0
16 -39 45 0
8 36 13 0
40 -74 29 0
58 40 67 0
-73 14 5 0
24 -51 16 0
-7 61 -54 0
27 -10 68 0
-72 22 70 0
-51 53 61 0
25 -60 -62 0
-15 -19 75 0
56 64 40 0
50 -44 5 0
-73 -35 60 0
-28 61 -45 0
35 20 -54 0
45 58 -15 0
11 42 -57 0
-59 49 15 0
-58 -30 -37 0
-60 -59 49 0
-28 1 -50 0
22 -51 41 0
-68 18 29 0
-54 -1 -62 0
-48 30 -37 0
-7 -50 53 0
14 -53 -20 0
5 37 -67 0
40 38 12 0
-25 -15 -68 0
23 -63 60 0
34 -32 -35 0
-25 -46 -20 0
-52 -6 -18 0
16 -39 46 0
39 22 3 0
64 56 63 0
-19 -4 72 0
-6 -28 -31 0
-50 -47 -72 0
-14 56 -39 0
10 44 -52 0
-27 34 13 0
2 -75 29 0
-22 -62 -7 0
-64 61 -20 0
52 -27 29 0
54 10 25 0
31 -55 36 0
-14 -45 6 0
-29 41 -5 0
64 43 74 0
3 42 -19 0
-20 49 -58 0
-51 -10 -71 0
30 -49 -14 0
-6 -7 -36 0
74 2 51 0
-42 37 -34 0
-36 -44 25 0
44 15 -25 0
16 -25 -71 0
-14 -18 -61 0
13 -70 44 0
-25 15 41 0
69 18 73 0
46 -67 -44 0
41 -2 14 0
-18 -41 64 0
-74 62 -16 0
-71 20 21 0
63 -40 -5 0
34 -69 11 0
-15 11 6 0
33 -47 -20 0
-49 -60 55 0
-17 59 -44 0
