c Coffinhead hard-core n=75 seed=10 ratio=4.0
p cnf 75 300
61 -72 -12 0
-60 56 -46 0
-12 -38 -27 0
3 38 -41 0
20 -53 -74 0
60 11 -65 0
24 -5 -70 0
62 14 71 0
-15 -42 -32 0
-40 -61 -23 0
44 -23 43 0
-62 69 67 0
-8 56 -51 0
7 28 68 0
63 61 -11 0
33 59 -69 0
-49 66 69 0
-25 65 2 0
63 -37 54 0
-44 -74 -14 0
66 -5 29 0
45 -24 -9 0
-32 19 6 0
-29 -49 20 0
48 -23 5 0
23 -46 67 0
-18 44 37 0
46 18 14 0
-45 -74 -31 0
-47 -61 -68 0
70 -10 40 0
-55 19 69 0
-13 69 -11 0
56 69 -15 0
-63 55 47 0
17 6 51 0
45 39 -46 0
-41 -16 30 0
-54 36 4 0
-72 29 14 0
3 -25 58 0
42 -21 -50 0
5 35 -14 0
-62 -6 54 0
-3 -59 1 0
54 -22 73 0
24 10 43 0
25 27 41 0
-74 8 -7 0
65 -62 38 0
-24 63 -40 0
-50 36 24 0
-16 -51 -19 0
75 48 -6 0
33 61 3 0
-48 60 -28 0
-51 23 -34 0
24 -59 -63 0
55 -18 -67 0
4 29 32 0
-4 -39 74 0
-3 -21 12 0
51 55 32 0
-58 26 -68 0
-57 -55 -41 0
-69 53 55 0
-69 26 29 0
-54 17 -62 0
-43 -23 73 0
45 11 -1 0
9 -24 -16 0
71 48 26 0
-9 -23 28 0
39 55 -50 0
-4 -17 -55 0
-67 -46 10 0
-23 22 58 0
-1 23 17 0
-73 50 -37 0
-50 28 -44 0
59 -42 -30 0
36 44 58 0
63 73 12 0
30 -11 68 0
-69 29 -1 0
26 -43 39 0
52 -6 -22 0
68 69 -75 0
-12 27 -59 0
-75 -12 -46 0
24 -25 -34 0
-64 44 50 0
44 -5 13 0
-9 16 33 0
-47 48 11 0
28 -59 -29 0
12 67 44 0
69 -37 43 0
-69 40 41 0
-22 -17 63 0
3 39 -12 0
-67 64 -58 0
-11 -61 -53 0
-30 -50 62 0
-48 1 -25 0
44 -69 31 0
18 -48 -56 0
-51 10 47 0
62 -16 -37 0
-55 -18 10 0
56 -9 63 0
40 -26 62 0
-43 61 -28 0
43 28 33 0
-64 16 9 0
36 -56 38 0
-32 66 -10 0
1 -46 -58 0
-50 -71 60 0
-28 -75 -68 0
-70 -67 -22 0
72 11 40 0
41 46 -39 0
26 49 51 0
-68 -14 -23 0
-28 56 59 0
-1 4 49 0
45 68 35 0
33 12 -25 0
2 58 -9 0
62 74 -39 0
33 46 55 0
-61 9 -63 0
-43 12 -58 0
-9 12 62 0
24 35 65 0
53 64 31 0
-64 -15 70 0
-49 -10 67 0
19 56 -64 0
-71 3 10 0
26 -49 -41 0
6 -24 20 0
-63 3 -30 0
66 -34 -48 0
24 18 -1 0
-29 -70 48 0
36 4 -55 0
25 65 -38 0
56 51 12 0
-58 29 -24 0
57 3 -30 0
-66 61 -12 0
8 49 73 0
7 64 58 0
71 26 -28 0
-22 -35 -74 0
-72 34 1 0
-66 -45 -10 0
10 -49 6 0
-59 19 -40 0
-22 -70 28 0
-50 3 -71 0
35 5 -71 0
-5 -14 60 0
74 34 -60 0
-71 -66 -30 0
75 -21 39 0
50 34 7 0
75 -39 -12 0
50 66 67 0
41 26 27 0
40 44 38 0
21 -72 -47 0
32 -21 10 0
-62 -57 51 0
71 8 -49 0
-11 25 31 0
18 28 67 0
49 -24 -37 0
-12 13 10 0
39 61 -7 0
-47 13 -7 0
-29 61 -22 0
42 38 -31 0
70 62 46 0
-65 74 -36 0
-66 -25 32 0
-44 -4 30 0
-9 66 5 0
47 -71 50 0
23 2 50 0
13 -42 -50 0
66 -15 -46 0
-27 -48 -73 0
-16 36 8 0
-31 48 -66 0
-11 23 62 0
-57 -74 -73 0
-34 -69 19 0
67 -66 73 0
73 47 -24 0
74 -73 65 0
-3 -5 -20 0
33 -31 -43 0
72 24 -54 0
-72 -30 -58 0
-6 27 -59 0
33 -44 67 0
38 43 -14 0
-9 -62 68 0
38 -48 -67 0
-17 10 65 0
32 -67 -26 0
-37 74 -57 0
67 71 28 0
-43 13 -19 0
22 11 -45 0
-73 32 -26 0
58 38 -66 0
38 68 50 0
20 -56 60 0
38 27 -56 0
-65 25 -56 0
52 -64 -62 0
47 17 -58 0
-56 70 -23 0
-62 -1 -23 0
-5 -45 -70 0
63 75 -62 0
-46 -64 37 0
-71 70 45 0
-65 -12 -59 0
-27 45 -24 0
-74 -17 -73 0
-32 49 -44 0
47 73 -56 0
40 -74 5 0
57 -61 -55 0
1 19 -20 0
-38 22 -28 0
64 -12 -1 0
-65 -40 -35 0
-68 -24 35 0
1 44 -20 0
-42 35 -47 0
-49 25 -4 0
-16 1 -66 0
23 35 -61 0
66 39 -14 0
-10 -4 39 0
44 12 -60 0
19 -26 31 0
-2 59 -35 0
67 -4 50 0
-43 67 11 0
-14 32 -50 0
-36 -64 65 0
-26 -67 5 0
-20 -49 8 0
-69 -29 48 0
-62 -30 -19 0
55 72 -26 0
-33 -56 38 0
59 -48 -23 0
52 -27 -3 0
-28 50 5 0
64 58 -4 0
-52 -8 -53 0
-56 24 -40 0
2 50 -45 0
35 -37 -70 0
8 -73 -43 0
-35 73 8 0
-58 -8 -7 0
6 42 -22 0
21 -2 53 0
75 16 7 0
69 62 -20 0
45 -5 -59 0
-1 33 -41 0
-51 -3 73 0
8 -75 -17 0
48 50 -72 0
-32 2 -23 0
-56 41 -13 0
11 42 25 0
47 33 66 0
-13 62 -3 0
-31 19 3 0
-23 -1 57 0
-51 -3 -15 0
3 -24 50 0
30 73 28 0
-8 -57 -27 0
-69 -66 12 0
-59 16 22 0
-72 57 62 0
-61 -68 -71 0
-64 35 -52 0
