c Coffinhead hard-core n=75 seed=50 ratio=4.0
p cnf 75 300
38 74 10 0
-44 46 -6 0
-32 -16 6 0
36 -34 59 0
-55 -27 -47 0
-17 -22 38 0
-28 -18 60 0
39 47 38 0
18 -53 -51 0
73 -12 -17 0
5 -30 -9 0
9 -57 37 0
20 19 12 0
56 21 48 0
48 20 66 0
50 -40 -75 0
35 5 8 0
-12 8 39 0
6 71 -28 0
16 58 -3 0
-67 -12 -29 0
-46 55 16 0
71 -54 40 0
-72 -36 -12 0
-17 24 -69 0
27 -66 -28 0
-10 57 -52 0
-26 -14 -70 0
71 -40 29 0
70 -43 15 0
-9 50 -72 0
-62 -2 21 0
-44 23 -7 0
-21 41 14 0
17 -20 -7 0
-18 -12 27 0
7 30 -50 0
-31 20 60 0
55 -23 -66 0
-75 -24 30 0
46 -13 -52 0
-28 23 6 0
-7 24 65 0
-12 50 29 0
50 75 71 0
47 -12 50 0
-37 9 56 0
54 5 -72 0
45 -48 -25 0
39 61 1 0
-4 -14 -32 0
4 18 -38 0
-28 8 30 0
-74 -31 18 0
62 -18 70 0
-49 32 -62 0
42 -75 -27 0
-73 14 52 0
66 -52 -14 0
20 4 21 0
58 44 7 0
-52 56 -49 0
-69 48 22 0
-5 66 -19 0
-27 12 -52 0
-60 -61 -36 0
8 -25 26 0
-12 63 -22 0
-29 26 70 0
-27 -48 28 0
59 -29 -72 0
7 -18 -19 0
70 33 7 0
26 15 -33 0
-4 -69 50 0
-73 15 -55 0
65 27 75 0
-22 -31 49 0
-54 -58 -73 0
-55 32 -3 0
-41 19 52 0
10 59 -57 0
-9 -35 -49 0
-43 -65 -49 0
31 -73 62 0
-6 -52 2 0
-46 34 56 0
-31 22 36 0
68 -59 -34 0
19 -65 20 0
-68 -1 -32 0
-1 6 -11 0
68 -18 38 0
-57 -66 -3 0
22 -59 -73 0
71 19 16 0
27 55 61 0
-63 29 -11 0
6 7 -71 0
-33 -3 -65 0
2 -50 48 0
-50 -27 56 0
63 45 74 0
16 -64 6 0
-73 -19 -18 0
-40 -61 -37 0
1 2 74 0
17 73 4 0
-70 -10 -5 0
34 40 -18 0
-58 23 -46 0
51 28 26 0
46 -39 9 0
40 4 -16 0
-13 -2 38 0
-30 55 50 0
11 -25 -63 0
-5 -22 40 0
68 -15 26 0
56 2 30 0
-17 -18 -26 0
-74 45 -73 0
-28 -59 37 0
-16 34 70 0
52 66 11 0
8 9 -50 0
61 51 -3 0
32 10 -36 0
20 -16 62 0
-9 68 -51 0
-63 61 -67 0
35 -16 -75 0
46 74 13 0
2 -19 50 0
-42 6 -46 0
74 -46 49 0
-63 37 -30 0
-50 53 26 0
-5 -23 -52 0
-58 13 -46 0
62 67 20 0
-44 19 -38 0
30 49 5 0
-10 5 -16 0
33 -72 59 0
-47 -61 -43 0
-57 13 -51 0
15 74 71 0
24 -38 -14 0
-72 61 62 0
-4 53 -3 0
-54 1 44 0
47 -56 -35 0
16 51 -32 0
-72 48 36 0
-11 20 64 0
68 -22 7 0
69 10 -56 0
8 54 -67 0
27 -7 28 0
43 -28 31 0
-8 22 58 0
-32 -22 50 0
-71 -40 -43 0
51 33 74 0
-41 13 37 0
32 -23 15 0
-15 -71 -30 0
67 3 37 0
-53 55 -48 0
-49 -70 -48 0
-27 66 51 0
64 71 -57 0
46 -70 -19 0
72 39 25 0
36 18 -27 0
64 58 -57 0
1 -68 72 0
10 -50 -49 0
8 2 45 0
-1 4 -51 0
-30 -20 -16 0
60 -33 73 0
20 -55 5 0
43 -11 24 0
4 53 -52 0
-3 -34 40 0
59 -7 -61 0
-2 73 17 0
-63 -35 -31 0
-40 -69 68 0
-48 -12 -37 0
-18 30 5 0
41 5 61 0
-20 -75 -18 0
-65 63 72 0
-59 -13 7 0
-6 32 -55 0
-16 -61 -54 0
29 54 -15 0
-52 20 51 0
-20 -25 10 0
-21 50 -58 0
-36 46 -69 0
-32 64 12 0
-68 52 -48 0
11 71 -9 0
-58 -40 -73 0
56 -25 -8 0
43 23 66 0
-22 -8 -32 0
-21 63 -4 0
54 45 71 0
3 29 71 0
61 -73 -29 0
62 1 22 0
-28 27 15 0
20 -10 51 0
-42 36 27 0
47 -3 -59 0
-42 3 -67 0
19 -25 12 0
4 -36 46 0
74 57 3 0
-11 -15 -71 0
53 -40 -58 0
-12 26 -58 0
65 71 15 0
43 -40 -5 0
4 71 65 0
-60 43 -29 0
-49 -72 -21 0
-74 73 -59 0
-44 74 73 0
11 -64 -7 0
-11 -43 -34 0
4 -47 -51 0
27 33 66 0
74 -37 -41 0
16 -27 12 0
26 -58 -68 0
-69 38 49 0
53 -23 -71 0
68 -10 19 0
37 -38 4 0
72 62 -18 0
-22 72 -69 0
35 74 -71 0
48 -5 -62 0
44 30 13 0
-34 67 -13 0
34 67 6 0
-38 11 42 0
-51 29 -48 0
48 -25 -8 0
-24 -62 -59 0
-61 -28 -53 0
19 -34 -29 0
11 70 31 0
-75 12 -68 0
60 41 45 0
-58 68 -10 0
24 -75 -68 0
52 -34 -48 0
60 62 69 0
-64 -31 -27 0
-59 30 -34 0
25 24 -50 0
12 64 51 0
68 54 49 0
-41 55 -4 0
-13 31 -74 0
-25 18 -45 0
-1 10 -40 0
-25 -65 -36 0
-6 32 54 0
-68 -16 1 0
70 47 -9 0
-8 61 -73 0
-30 34 33 0
-65 27 -26 0
-6 -24 -75 0
14 -46 13 0
49 68 22 0
-14 -23 -38 0
-65 57 25 0
-55 41 51 0
-74 32 -38 0
56 58 -26 0
-65 -34 -49 0
-54 75 -1 0
-17 73 63 0
-13 -62 53 0
40 -75 -68 0
-2 64 43 0
72 34 36 0
-34 -44 -8 0
-61 49 -12 0
5 8 49 0
49 -62 58 0
