c Coffinhead hard-core n=75 seed=46 ratio=4.0
p cnf 75 300
44 -5 -62 0
6 46 74 0
-17 11 51 0
49 -37 39 0
46 -58 -65 0
-14 34 25 0
49 -52 10 0
-58 -37 -11 0
64 74 46 0
61 -10 -43 0
-30 -31 63 0
9 45 8 0
58 -46 37 0
-67 45 52 0
17 -49 50 0
-8 -71 48 0
18 49 69 0
60 -39 41 0
-23 -12 7 0
54 -22 72 0
-33 -1 50 0
75 -11 -44 0
-10 2 -25 0
40 12 55 0
21 23 -62 0
60 -71 -22 0
73 -42 33 0
22 -35 32 0
-51 -59 71 0
-22 32 60 0
-48 7 47 0
-58 56 50 0
-59 24 32 0
27 -39 -26 0
-65 69 58 0
62 -17 51 0
35 -15 -64 0
-20 -69 -48 0
4 -14 -23 0
22 50 -33 0
58 -74 71 0
-14 75 -55 0
53 -65 48 0
-50 66 -51 0
1 15 -33 0
22 27 -7 0
75 39 7 0
-54 -46 -70 0
-49 -70 29 0
23 -27 8 0
-67 3 -23 0
65 40 -62 0
-22 -69 -51 0
-47 -50 27 0
45 -62 34 0
46 -38 70 0
43 71 -75 0
-44 55 17 0
68 -45 11 0
8 -38 48 0
-22 -54 -12 0
-63 -14 -17 0
-28 -19 3 0
14 75 -63 0
-15 -40 -30 0
2 -23 -28 0
5 -69 -57 0
67 -18 55 0
15 2 -19 0
-64 -57 -53 0
-52 29 15 0
1 39 -33 0
-19 60 26 0
21 15 32 0
-26 72 46 0
-73 26 -27 0
-29 -68 46 0
69 3 19 0
33 41 60 0
-55 52 70 0
57 -10 18 0
13 -59 -51 0
-62 -1 7 0
47 60 -4 0
-18 60 -65 0
53 -61 20 0
-38 -1 -61 0
-69 -66 61 0
-33 -15 58 0
53 18 50 0
25 -44 51 0
22 -19 -20 0
-4 -44 -14 0
-21 27 -20 0
28 -2 -19 0
-28 27 -69 0
59 16 62 0
69 14 -62 0
-10 61 -15 0
45 -11 -37 0
-8 32 46 0
-38 46 -18 0
44 -60 -45 0
45 -50 -2 0
39 36 -9 0
47 75 -44 0
-72 16 56 0
41 -48 44 0
-60 -64 40 0
26 -15 42 0
-72 59 3 0
65 51 52 0
-58 23 -14 0
54 38 2 0
-75 -39 11 0
-16 -67 26 0
-48 -31 1 0
42 48 75 0
28 -55 -56 0
61 -20 -2 0
3 14 -23 0
71 -47 12 0
-47 24 22 0
4 -63 23 0
43 -20 54 0
28 50 65 0
24 48 10 0
-18 -49 -43 0
11 -16 -64 0
-16 -72 29 0
-9 -20 27 0
-29 -21 -31 0
22 59 -7 0
44 24 57 0
46 50 -59 0
-69 39 -31 0
11 35 -36 0
-36 -34 -26 0
38 -63 -42 0
35 48 -50 0
-8 21 -52 0
2 22 -30 0
27 -24 74 0
-61 -1 31 0
-11 68 42 0
-10 65 -1 0
-41 -65 33 0
-57 52 -23 0
32 58 -30 0
-47 62 63 0
12 26 60 0
-73 51 -11 0
41 35 -63 0
-47 -30 42 0
5 35 -37 0
62 -54 -27 0
5 56 -43 0
29 -52 -8 0
-15 27 44 0
11 -1 -12 0
-44 -35 -18 0
19 -61 -44 0
66 56 58 0
-2 42 62 0
-58 -17 61 0
48 57 24 0
47 44 -72 0
18 -65 70 0
14 72 -39 0
-72 30 45 0
-46 62 73 0
-51 -44 18 0
-2 -71 32 0
-37 -39 -23 0
-46 11 -23 0
-25 19 1 0
-48 -19 -70 0
58 54 -72 0
-7 -23 -2 0
-66 -10 -9 0
57 11 69 0
-49 -37 18 0
41 16 37 0
49 43 -14 0
-7 47 8 0
-23 72 -3 0
55 22 -54 0
-58 14 36 0
-1 51 7 0
-13 72 50 0
49 17 -44 0
29 -71 16 0
-67 -33 -45 0
-2 -68 46 0
-55 -47 65 0
-32 8 -7 0
45 -59 75 0
-21 -66 18 0
-68 67 -69 0
51 -41 72 0
51 33 37 0
16 -51 -49 0
-73 -13 25 0
56 -64 -37 0
-75 -15 29 0
23 -58 28 0
-22 -41 -13 0
-24 32 -71 0
46 51 -37 0
39 2 74 0
63 -36 -48 0
-9 60 -59 0
68 -36 6 0
39 -36 52 0
-64 2 65 0
44 -39 17 0
9 -40 7 0
-32 59 14 0
-2 -72 23 0
-16 27 65 0
-32 -22 -49 0
24 -14 -4 0
-59 15 50 0
-52 33 -73 0
-69 23 -50 0
69 23 6 0
-43 -54 -19 0
-33 9 50 0
-2 -23 15 0
5 22 60 0
-71 35 -60 0
42 5 -71 0
6 21 -27 0
-2 -21 -27 0
27 46 52 0
-34 -17 -43 0
31 -52 -5 0
38 61 36 0
50 11 24 0
-7 -71 -72 0
70 -74 -23 0
52 -64 -51 0
42 4 27 0
-30 -20 60 0
-5 -8 -63 0
-6 -18 49 0
-15 3 -55 0
-69 -26 71 0
-25 -54 46 0
-35 -50 -33 0
57 6 63 0
-71 -46 68 0
-74 45 49 0
40 -62 -16 0
-56 65 44 0
20 -57 28 0
56 -46 -9 0
-14 36 -46 0
-1 15 -64 0
-9 73 26 0
-3 17 -18 0
-69 3 -8 0
-6 64 32 0
33 5 -4 0
-35 -7 57 0
55 -16 33 0
38 71 45 0
-64 2 62 0
-13 10 -16 0
-53 4 -23 0
25 -64 -67 0
28 3 -58 0
15 41 25 0
60 75 -40 0
40 24 29 0
1 20 -31 0
7 15 -72 0
8 68 19 0
-7 32 38 0
44 53 -34 0
28 -33 -7 0
-16 69 75 0
-33 28 74 0
36 -20 -14 0
69 -45 -36 0
31 -29 15 0
64 75 -2 0
74 -53 -1 0
68 27 70 0
-69 -58 4 0
-72 -49 24 0
-59 13 -2 0
9 -67 -64 0
65 18 -19 0
46 -8 -36 0
9 33 30 0
-4 -51 42 0
39 5 -21 0
-20 29 44 0
-7 31 68 0
