c Coffinhead hard-core n=20 seed=28 ratio=4.0
p cnf 20 80
-9 5 15 0
13 -8 18 0
-3 17 -4 0
-20 -2 -7 0
17 -7 -20 0
-14 4 3 0
-4 3 -19 0
-6 18 -19 0
2 11 -17 0
-16 -19 8 0
-7 2 -13 0
14 -3 -6 0
5 -18 17 0
-20 -17 -14 0
4 -1 20 0
-20 19 5 0
15 -11 -4 0
-16 -1 14 0
2 -4 9 0
9 -5 -19 0
2 4 17 0
19 2 7 0
1 6 4 0
14 12 -8 0
-10 -8 -17 0
-6 19 8 0
10 19 -12 0
12 4 -6 0
-19 -15 -18 0
5 8 -6 0
-2 -15 16 0
3 -2 4 0
-2 10 -13 0
-11 14 13 0
3 9 11 0
19 16 17 0
1 -17 19 0
-15 14 -1 0
6 10 -8 0
-17 -12 6 0
10 8 16 0
2 -1 -6 0
4 -13 -12 0
11 -19 -15 0
-7 11 -13 0
-11 18 -2 0
-10 20 -18 0
-8 4 -3 0
-1 5 -2 0
-10 8 11 0
1 18 -9 0
-4 11 6 0
5 18 20 0
-15 18 16 0
14 -18 17 0
-10 -2 1 0
16 -10 -7 0
16 9 -2 0
1 17 2 0
4 18 -8 0
-19 -20 3 0
16 -5 9 0
13 -4 -11 0
2 -19 -11 0
-14 16 -10 0
3 9 8 0
17 -6 1 0
-2 4 15 0
-9 -3 -1 0
15 -10 -2 0
-20 11 -4 0
7 15 -17 0
9 -14 7 0
-13 -6 -9 0
15 -8 -10 0
-19 -13 10 0
18 -9 -12 0
-9 -13 -20 0
20 14 -8 0
-16 -4 6 0
