c Coffinhead hard-core n=20 seed=34 ratio=4.0
p cnf 20 80
7 -11 -5 0
-14 10 -11 0
-15 17 -3 0
2 17 -3 0
1 15 -3 0
-11 -5 -1 0
3 -18 -4 0
14 -11 -12 0
12 -5 20 0
1 -4 -16 0
20 -6 1 0
-20 -9 4 0
-13 18 16 0
-13 -19 20 0
-1 14 -5 0
3 -18 8 0
3 -13 19 0
2 9 -15 0
19 -17 5 0
-6 14 3 0
5 7 1 0
13 -10 12 0
-16 -17 15 0
20 17 10 0
-14 19 -7 0
-8 -20 9 0
17 -12 20 0
-6 4 8 0
6 1 -14 0
7 -8 6 0
-13 -8 -11 0
-6 -15 -5 0
-1 -15 -17 0
12 -19 6 0
16 -1 13 0
6 -16 4 0
16 17 9 0
6 20 1 0
7 19 -20 0
-8 5 10 0
20 -4 -13 0
1 -15 5 0
-8 5 9 0
-16 17 1 0
-18 4 17 0
5 -20 3 0
-16 19 17 0
7 3 -1 0
-6 -2 10 0
7 -18 15 0
16 17 -13 0
2 8 14 0
4 -18 12 0
-14 8 -6 0
-16 -9 -1 0
-2 15 17 0
17 -20 -5 0
4 -10 -11 0
-5 -3 14 0
1 10 12 0
-8 18 -16 0
-14 8 -4 0
10 -17 2 0
-18 -8 -7 0
6 -7 16 0
-6 15 -20 0
17 -2 -12 0
-10 20 -15 0
6 -8 -9 0
14 16 9 0
-4 12 -20 0
12 13 -19 0
19 10 1 0
-6 -15 3 0
-6 -11 14 0
-8 -19 -1 0
6 -1 -13 0
16 -9 -13 0
2 3 5 0
1 13 -8 0
