c Coffinhead hard-core n=20 seed=101 ratio=4.0
p cnf 20 80
2 -8 -5 0
-2 10 11 0
-10 -18 -3 0
2 -12 -11 0
-4 20 12 0
-16 -20 3 0
-1 17 12 0
3 16 -9 0
11 3 14 0
7 3 -10 0
15 -3 9 0
-4 -6 -10 0
20 6 -2 0
16 15 -13 0
-14 -1 -5 0
13 11 -14 0
-16 -17 12 0
13 -11 -16 0
16 18 -1 0
-17 18 10 0
5 -12 8 0
4 2 7 0
19 -14 4 0
2 -14 11 0
-12 20 17 0
-15 11 7 0
17 7 -10 0
9 -15 2 0
1 20 14 0
-6 13 3 0
-7 -1 -6 0
5 20 12 0
16 -13 -10 0
16 20 -12 0
13 -4 17 0
1 17 -7 0
-15 8 14 0
-10 13 -20 0
16 8 15 0
-1 14 20 0
-9 -3 -1 0
20 17 -8 0
-19 -6 5 0
16 17 -3 0
-2 11 -6 0
7 5 8 0
-6 -2 5 0
-9 -14 8 0
2 4 3 0
-14 -4 -6 0
-4 -5 17 0
-1 13 17 0
10 -15 -12 0
-17 -10 -4 0
20 -7 -6 0
19 -16 12 0
-20 -17 6 0
7 16 -10 0
1 -20 9 0
8 -18 -13 0
-6 11 5 0
-18 -9 -5 0
-19 20 18 0
-17 -12 7 0
1 20 10 0
4 -9 2 0
-6 -14 -11 0
-19 9 -17 0
4 -8 -2 0
-18 -12 -15 0
-5 -4 13 0
8 10 3 0
-16 -19 12 0
-2 -12 13 0
9 18 -20 0
-3 -8 13 0
-13 5 -11 0
-9 12 -2 0
17 -2 -11 0
10 -11 14 0
