c Coffinhead hard-core n=20 seed=111 ratio=4.0
p cnf 20 80
-4 20 15 0
-14 5 18 0
16 -19 -12 0
14 -18 -5 0
8 -3 5 0
-9 18 -5 0
-16 -20 17 0
-1 -17 -3 0
-9 19 8 0
6 2 7 0
-14 -4 7 0
-19 -11 12 0
-6 1 -9 0
-6 13 7 0
-3 13 20 0
11 4 10 0
11 6 -15 0
-13 -7 -6 0
17 -19 -2 0
-17 15 18 0
15 -1 -6 0
-10 6 -11 0
-3 16 1 0
-11 1 -9 0
17 18 -10 0
19 7 -5 0
-13 -5 -15 0
-6 12 -11 0
20 -10 3 0
15 6 -16 0
-19 15 -20 0
-14 -5 -8 0
-13 -12 -8 0
4 -11 1 0
-18 5 -14 0
-2 -20 19 0
-11 12 13 0
-10 18 -9 0
16 -11 3 0
12 -13 4 0
-6 -5 -10 0
20 17 -3 0
-20 14 -18 0
15 -4 -5 0
-11 1 12 0
18 -11 17 0
-13 18 -11 0
-17 -12 13 0
-8 18 12 0
13 -14 17 0
2 -8 10 0
17 -4 15 0
17 7 4 0
8 -10 -20 0
-15 17 12 0
12 -18 13 0
6 -18 -12 0
2 7 -9 0
-3 -20 14 0
13 -7 -14 0
-7 13 12 0
-12 -9 7 0
10 -1 11 0
10 -4 -13 0
16 -20 -7 0
16 8 3 0
-11 -4 15 0
12 -8 -11 0
-8 -17 3 0
12 6 -18 0
-7 -12 -17 0
-17 -16 8 0
11 -12 18 0
16 -2 -3 0
9 3 1 0
11 12 -3 0
-20 -15 -19 0
17 18 -14 0
-20 9 -19 0
-20 -3 -2 0
