c Coffinhead hard-core n=20 seed=47 ratio=4.0
p cnf 20 80
-20 -2 14 0
15 10 11 0
14 -11 -1 0
-6 -4 -17 0
16 6 -15 0
-17 -20 1 0
18 -8 -15 0
-1 5 -3 0
16 -4 -19 0
-19 4 -13 0
-20 -4 -15 0
-9 12 -8 0
-20 -19 2 0
8 -14 -6 0
-1 -12 2 0
-1 17 18 0
4 -10 -20 0
14 -2 -12 0
18 -14 -4 0
3 19 -5 0
-11 -5 -9 0
2 20 -13 0
1 7 15 0
17 10 -15 0
-17 -14 9 0
7 -13 9 0
-3 10 15 0
2 18 -9 0
-11 20 16 0
-20 -6 -10 0
-4 -5 -6 0
-19 -5 3 0
-16 10 5 0
12 20 -13 0
-18 -14 15 0
-18 -11 -2 0
-18 3 -13 0
15 2 10 0
-10 6 -11 0
5 16 6 0
5 6 -3 0
-11 -14 4 0
10 -15 -7 0
-12 8 -19 0
-11 -18 10 0
-19 -12 13 0
-4 17 12 0
17 -16 20 0
10 -2 -14 0
-8 15 -11 0
2 -10 12 0
8 2 6 0
11 5 -10 0
-9 12 19 0
-1 -12 -17 0
-15 16 -1 0
6 -17 -13 0
-6 1 9 0
6 -7 13 0
-3 10 12 0
-14 -10 -9 0
3 1 -12 0
19 -14 -2 0
8 -18 -2 0
-12 -1 7 0
-9 8 -12 0
-17 -7 10 0
-1 -14 -16 0
-5 -9 -12 0
-4 9 12 0
18 1 17 0
14 9 16 0
-17 3 -18 0
11 6 7 0
12 18 5 0
13 -7 -16 0
-16 -17 7 0
8 -10 -14 0
9 16 -20 0
-13 -5 -11 0
