c Coffinhead hard-core n=20 seed=51 ratio=4.0
p cnf 20 80
-20 -4 -17 0
18 1 7 0
18 4 1 0
12 -8 -19 0
11 -6 19 0
11 9 -19 0
3 10 -17 0
-2 15 3 0
-5 13 -11 0
18 -6 4 0
-14 7 15 0
2 -16 7 0
20 7 -19 0
18 -13 11 0
20 -1 15 0
-19 15 -10 0
-14 -16 -1 0
11 -2 19 0
-13 9 -6 0
2 16 -17 0
1 16 -18 0
1 -13 -18 0
10 -8 -2 0
-2 -11 18 0
7 4 1 0
-5 -7 -4 0
20 19 -14 0
-4 -17 -18 0
-1 2 19 0
20 11 -17 0
-3 -14 20 0
18 7 8 0
2 -1 -15 0
2 -16 -18 0
-13 1 -6 0
9 11 7 0
6 -11 -19 0
9 16 -1 0
6 -2 9 0
16 12 8 0
7 -1 19 0
12 4 -1 0
-6 -16 -9 0
6 -15 -8 0
-13 17 -15 0
-8 -1 11 0
6 -11 -4 0
-13 -5 10 0
1 2 18 0
-16 -15 11 0
7 -16 -19 0
3 -1 12 0
-1 9 3 0
7 17 15 0
-16 11 1 0
3 16 15 0
5 3 -10 0
-20 19 8 0
20 -16 7 0
1 8 17 0
-8 -13 16 0
-3 -7 4 0
-5 12 -19 0
-3 -4 7 0
9 -3 5 0
-10 17 -14 0
-11 -1 18 0
-3 -15 19 0
-7 -1 -19 0
11 17 20 0
-10 19 -7 0
20 -12 -19 0
8 5 20 0
-9 18 -10 0
19 4 -3 0
-9 19 -1 0
-2 7 6 0
11 13 -14 0
-10 8 -17 0
7 -8 -12 0
