c Coffinhead hard-core n=20 seed=55 ratio=4.0
p cnf 20 80
-4 -20 2 0
-7 5 9 0
11 -4 5 0
-11 -16 8 0
-13 2 -9 0
10 16 -20 0
-12 17 -3 0
-9 1 -16 0
10 -19 -9 0
-11 -13 19 0
15 -11 12 0
-1 -3 -10 0
-3 5 12 0
16 -13 -19 0
15 -17 -4 0
-5 14 -2 0
-4 -16 3 0
-20 7 -9 0
-10 -1 -11 0
19 15 18 0
5 -16 -10 0
19 -15 16 0
-14 12 -10 0
4 -8 17 0
14 8 -5 0
-7 6 13 0
1 -8 -10 0
-3 -16 -4 0
8 18 10 0
-14 6 17 0
-1 20 -5 0
-11 6 1 0
9 3 -16 0
2 -19 3 0
-20 -12 11 0
3 -15 -10 0
-8 13 15 0
20 -15 3 0
-3 -2 -14 0
9 -8 4 0
-17 4 11 0
2 -10 4 0
-12 -7 8 0
-4 13 15 0
-7 -10 -13 0
7 6 -15 0
6 -12 18 0
10 14 -2 0
-12 -6 -20 0
6 -18 -11 0
6 18 13 0
3 -16 18 0
-13 19 20 0
9 18 16 0
13 -6 14 0
9 -10 -3 0
-11 -18 -14 0
10 4 11 0
-16 9 15 0
20 -4 -15 0
6 -12 -20 0
9 -17 -18 0
-3 -19 20 0
-8 14 1 0
-15 20 -12 0
20 -12 -4 0
-1 8 -2 0
-14 17 -10 0
9 14 6 0
16 -3 -14 0
10 16 -19 0
1 7 -19 0
16 -15 4 0
-13 -5 -17 0
15 14 12 0
1 9 -3 0
-16 -18 -3 0
-13 -10 -7 0
2 -12 -10 0
-19 -5 12 0
