c Coffinhead hard-core n=20 seed=54 ratio=4.0
p cnf 20 80
7 11 -9 0
4 16 3 0
6 -14 8 0
-17 -3 -11 0
-8 -4 -18 0
17 2 -12 0
15 12 7 0
-8 -16 3 0
-17 11 4 0
1 4 -17 0
-16 3 -13 0
15 -19 16 0
-14 -18 -2 0
15 -4 -6 0
-9 16 -11 0
-1 12 4 0
4 18 7 0
-5 -19 -12 0
-19 11 -17 0
-18 4 15 0
11 -3 18 0
-20 -14 -5 0
16 -7 1 0
16 18 3 0
-1 16 17 0
6 -20 -7 0
6 11 -18 0
-4 -9 18 0
13 -19 14 0
-3 9 20 0
-19 1 6 0
-19 -9 15 0
10 -20 -19 0
-14 -4 -11 0
-15 -20 13 0
-20 -11 17 0
-6 8 -2 0
7 -3 4 0
7 8 -16 0
15 13 -5 0
16 9 10 0
-1 14 -9 0
-10 -4 12 0
20 -2 8 0
9 -14 13 0
-6 -2 16 0
10 9 -6 0
-13 -18 -14 0
-6 15 -17 0
20 8 -9 0
20 -11 -1 0
15 17 16 0
-9 2 12 0
-4 -15 -5 0
7 19 17 0
2 -17 20 0
-5 20 -19 0
13 -7 15 0
-3 9 -4 0
18 -19 7 0
11 -17 14 0
-7 15 -14 0
-19 -4 -13 0
1 8 15 0
17 -10 -7 0
-16 -4 -2 0
-20 18 16 0
20 2 1 0
-8 20 18 0
-19 18 -5 0
4 3 -13 0
15 -3 -19 0
-8 -5 -19 0
-17 1 10 0
-20 -13 -7 0
14 -7 17 0
2 12 1 0
2 10 7 0
-19 -15 -9 0
-1 3 -16 0
