c Coffinhead hard-core n=20 seed=56 ratio=4.0
p cnf 20 80
-17 9 2 0
-6 -19 -15 0
-7 -5 19 0
-20 8 18 0
8 -6 -12 0
15 8 14 0
20 -7 -5 0
-4 -10 2 0
-1 19 -20 0
-11 -13 -1 0
10 12 5 0
-2 6 -10 0
14 -5 -3 0
-11 -3 -20 0
1 -15 10 0
-4 5 -7 0
-8 -19 -6 0
-10 -14 9 0
9 20 10 0
-7 10 -5 0
3 16 1 0
3 4 18 0
-15 -13 -1 0
-6 20 4 0
-10 -15 11 0
10 -17 -11 0
-10 4 2 0
-10 -4 19 0
-6 -17 4 0
-1 13 -18 0
-17 -1 14 0
8 -14 -19 0
6 -14 -12 0
-12 4 -8 0
-14 6 -19 0
-12 -3 -13 0
-9 -17 19 0
16 -10 12 0
-11 13 -20 0
-12 -19 -13 0
-1 -12 3 0
-2 6 13 0
-18 11 -4 0
19 8 -6 0
8 3 15 0
-11 -6 19 0
-7 3 4 0
-2 -8 6 0
-7 -11 14 0
-19 3 15 0
12 -5 -2 0
17 -7 -15 0
-11 -5 -10 0
-17 7 9 0
-3 9 -5 0
-7 10 5 0
-13 -19 11 0
20 17 2 0
-14 -17 -13 0
17 -11 6 0
17 12 18 0
-14 -10 -15 0
7 16 19 0
4 2 15 0
-10 1 -6 0
6 20 -19 0
2 14 11 0
-16 13 -12 0
5 13 3 0
-9 -13 6 0
1 2 12 0
3 1 2 0
-13 3 -20 0
-12 2 1 0
-4 -17 11 0
15 -13 -1 0
-18 -20 -3 0
-4 19 -18 0
-9 4 -7 0
17 -12 -19 0
