c Coffinhead hard-core n=20 seed=67 ratio=4.0
p cnf 20 80
-4 8 -17 0
-18 8 -5 0
9 13 -1 0
5 -10 20 0
17 15 -4 0
13 8 -12 0
-13 -11 19 0
14 5 19 0
-13 -5 -8 0
-2 -5 -14 0
-2 -5 6 0
17 3 -5 0
1 3 -20 0
12 -14 3 0
14 15 -19 0
6 10 11 0
7 8 -1 0
6 2 -20 0
-7 10 5 0
19 -20 3 0
-13 6 -5 0
-9 1 -11 0
10 4 -14 0
19 3 13 0
17 -3 -16 0
2 -8 -18 0
10 -2 -5 0
-16 -5 14 0
-11 5 12 0
-7 10 -19 0
7 13 -5 0
-2 -17 -8 0
-16 -4 -5 0
-12 -15 10 0
-2 -19 -13 0
5 17 9 0
7 -9 8 0
10 1 11 0
13 -4 14 0
15 14 -6 0
-7 -18 19 0
7 -8 -6 0
5 14 -1 0
9 -18 -2 0
9 -20 16 0
-3 -16 8 0
1 18 -12 0
9 -18 16 0
7 -6 1 0
-11 -8 -7 0
3 -2 4 0
10 -2 -1 0
-13 9 3 0
14 -19 -12 0
16 -6 18 0
15 3 -12 0
1 -14 -17 0
-3 -14 4 0
-11 1 17 0
-18 1 10 0
-5 -4 16 0
-15 3 2 0
-16 -1 -12 0
-2 -16 7 0
-19 20 12 0
-18 -19 6 0
16 1 10 0
3 -16 4 0
6 13 -10 0
-6 -9 -18 0
-4 -5 -10 0
-20 10 4 0
-16 2 17 0
4 2 8 0
7 13 17 0
-16 6 -7 0
-1 15 12 0
-4 15 3 0
14 -18 -19 0
10 2 -17 0
