c Coffinhead hard-core n=20 seed=48 ratio=4.0
p cnf 20 80
-9 4 5 0
13 3 7 0
12 4 -9 0
6 -10 -8 0
15 -5 17 0
15 -8 -14 0
6 3 2 0
3 -2 8 0
11 9 10 0
-1 -18 -7 0
5 9 16 0
-15 18 -11 0
-10 -8 -5 0
9 -10 -5 0
15 20 13 0
-3 -5 2 0
-19 16 -10 0
-20 12 -2 0
8 -18 -15 0
7 14 16 0
-10 12 -18 0
-17 14 -15 0
7 -1 -3 0
-7 1 -15 0
4 17 -18 0
-13 -7 18 0
-3 -2 -4 0
9 -13 -2 0
-19 -17 16 0
8 -4 -19 0
3 -4 -14 0
-2 -14 -13 0
-16 4 -14 0
2 -6 17 0
-20 19 8 0
-1 16 -11 0
-7 -10 -11 0
7 6 5 0
-20 4 -6 0
-12 17 2 0
-12 13 -4 0
-9 -1 -13 0
-19 -8 -1 0
-6 -17 5 0
-4 18 11 0
-4 -12 -6 0
1 -13 5 0
-2 -18 14 0
-15 -18 -11 0
-20 -13 -2 0
14 -16 2 0
3 -20 -10 0
-8 -2 18 0
10 3 7 0
-6 3 7 0
15 -18 -13 0
5 14 15 0
-16 2 20 0
-7 -15 5 0
19 -9 -10 0
-10 12 8 0
1 -4 -8 0
8 -5 -4 0
-11 12 -9 0
9 -11 7 0
-8 15 9 0
4 -11 -12 0
19 4 -11 0
16 1 10 0
-17 -2 -13 0
-20 -15 -9 0
-11 3 -17 0
-16 9 -20 0
12 -19 -17 0
3 -7 6 0
11 -19 -1 0
14 -4 6 0
18 -2 -1 0
14 8 -15 0
16 -20 -18 0
