c Coffinhead hard-core n=20 seed=96 ratio=4.0
p cnf 20 80
-17 -13 19 0
-3 -7 14 0
11 12 8 0
18 -17 -6 0
10 5 -11 0
8 -4 -5 0
-15 -8 -9 0
-2 4 7 0
-1 10 -12 0
1 17 4 0
6 -2 -15 0
7 -14 -8 0
-15 14 20 0
5 7 4 0
-6 -16 -8 0
-6 -11 13 0
-19 -9 -16 0
5 -20 9 0
-5 12 -2 0
2 -6 -16 0
17 12 -8 0
-11 -14 18 0
-2 14 -20 0
12 -7 17 0
-14 -9 3 0
20 -12 -18 0
-3 -14 -19 0
18 10 3 0
6 17 -7 0
6 -16 12 0
7 6 -1 0
15 -14 -11 0
3 -2 13 0
-13 6 12 0
5 -18 -20 0
-18 20 -3 0
-13 -15 5 0
-17 -12 16 0
-3 12 -20 0
1 -12 -10 0
-10 -14 -6 0
-6 -9 -17 0
17 18 -6 0
10 19 18 0
-8 14 4 0
13 -20 6 0
-14 10 19 0
-2 -4 -19 0
19 -11 -3 0
2 3 -14 0
18 15 10 0
-17 13 -3 0
-6 -3 18 0
3 20 -1 0
-1 -10 -11 0
11 14 -19 0
14 -8 3 0
15 4 3 0
18 -7 17 0
-13 -15 11 0
-16 -9 17 0
17 -14 5 0
2 -19 16 0
20 -1 -4 0
-1 4 11 0
-10 -19 -11 0
12 -3 18 0
5 -7 4 0
16 4 -17 0
-14 -19 -1 0
4 -6 19 0
6 20 -15 0
-15 10 1 0
-20 10 1 0
4 -11 5 0
5 -20 13 0
17 -18 3 0
19 -7 5 0
-2 -20 4 0
12 -14 -16 0
