c Coffinhead hard-core n=20 seed=0 ratio=4.0
p cnf 20 80
2 18 14 0
2 -20 5 0
19 9 6 0
-4 5 7 0
-11 6 -3 0
-5 -13 3 0
-7 8 18 0
3 -15 -8 0
-8 18 9 0
2 -4 -13 0
-9 13 16 0
3 -17 7 0
-4 14 15 0
-10 3 20 0
-15 18 16 0
-5 -11 -9 0
-12 -2 -18 0
1 5 -4 0
-8 11 -13 0
19 4 -17 0
1 12 3 0
13 -1 8 0
-15 13 -8 0
5 -10 -12 0
8 12 15 0
-9 20 15 0
11 8 -4 0
-1 -12 -11 0
-14 8 5 0
16 -17 8 0
-16 18 12 0
-20 -12 11 0
-1 17 14 0
11 12 7 0
3 10 14 0
18 17 11 0
-15 -1 -13 0
-13 9 10 0
12 -7 -20 0
-10 15 -19 0
-19 -7 -5 0
-10 -7 -16 0
-20 13 14 0
11 2 10 0
-18 -11 13 0
-12 -11 6 0
-17 14 -9 0
-19 -9 -20 0
1 11 -12 0
-12 11 17 0
7 -9 12 0
-20 -6 7 0
-11 8 5 0
4 -7 -10 0
-3 8 1 0
-2 4 -17 0
14 7 5 0
14 15 -7 0
13 7 -1 0
-16 6 -20 0
-14 -19 20 0
-20 -13 1 0
-8 -18 -16 0
5 -8 -15 0
2 -1 -13 0
-2 9 1 0
15 -8 -17 0
19 7 -15 0
15 1 -19 0
-10 17 -8 0
3 8 -11 0
-16 -7 20 0
-17 -19 4 0
8 16 10 0
4 -13 -20 0
8 19 -9 0
18 -6 3 0
7 2 -16 0
-19 4 17 0
-15 12 -1 0
