c Coffinhead hard-core n=20 seed=52 ratio=4.0
p cnf 20 80
-13 1 7 0
1 -16 4 0
-14 18 -5 0
-19 13 7 0
-13 5 -7 0
10 -13 -17 0
-9 8 16 0
12 -1 -2 0
-4 10 1 0
15 3 11 0
-9 14 -13 0
18 -11 2 0
8 5 -16 0
-14 16 12 0
9 13 -6 0
7 -19 6 0
-4 5 12 0
-11 -4 -1 0
-11 15 -3 0
-18 -10 -14 0
17 9 -18 0
-11 4 13 0
-11 1 -7 0
17 6 -20 0
17 1 2 0
-19 10 -11 0
-18 13 -8 0
2 -16 19 0
10 -20 -11 0
-2 -12 18 0
-13 -10 -12 0
-19 -8 2 0
-2 19 -10 0
-5 12 4 0
-4 16 3 0
-17 8 15 0
4 -17 -2 0
10 -15 -7 0
17 -13 19 0
-14 -15 13 0
-20 -3 -14 0
14 10 16 0
-17 3 -1 0
-3 -15 -18 0
17 12 16 0
1 -4 14 0
17 -4 -8 0
-4 -14 -6 0
-13 9 -20 0
6 -1 8 0
-11 -5 20 0
6 -2 -1 0
-13 19 2 0
-10 12 -1 0
16 9 8 0
8 -1 16 0
-2 1 3 0
-4 -9 -8 0
-14 10 -1 0
6 3 -15 0
11 9 -7 0
13 14 8 0
-18 -2 -11 0
20 -14 8 0
7 20 11 0
2 -4 10 0
-9 15 -19 0
2 -6 -14 0
-11 18 -1 0
5 -8 -16 0
1 9 8 0
-14 3 -10 0
-17 -5 -15 0
6 4 -5 0
-20 -5 17 0
-10 18 4 0
-7 13 15 0
12 -8 16 0
8 -2 4 0
-14 -1 11 0
