c Coffinhead hard-core n=20 seed=121 ratio=4.0
p cnf 20 80
14 -11 -17 0
-8 -5 -7 0
6 -14 7 0
-7 2 -15 0
20 -9 -12 0
-12 -4 13 0
-13 5 2 0
-17 -15 -7 0
19 -7 17 0
2 -8 20 0
-1 -3 -20 0
-13 -11 6 0
-16 -7 10 0
13 12 -17 0
1 -17 4 0
2 -17 7 0
-18 -1 -9 0
18 -19 -2 0
-20 -8 -3 0
8 -20 -10 0
10 -16 -4 0
-15 3 -13 0
19 -11 15 0
-3 -20 -15 0
-13 12 -5 0
16 2 17 0
-14 -12 -3 0
2 3 -20 0
-20 4 15 0
7 -10 20 0
16 2 -7 0
-12 -20 -19 0
14 -9 3 0
6 9 -4 0
15 -8 5 0
-2 -7 19 0
-11 -18 4 0
6 3 11 0
-17 -5 9 0
-5 -16 -10 0
10 4 -13 0
-10 -8 -4 0
11 1 -12 0
-11 1 13 0
12 19 15 0
-11 -13 -1 0
-16 12 10 0
-10 11 8 0
1 13 10 0
-18 12 -4 0
2 -11 8 0
-3 -13 -4 0
14 12 19 0
19 -7 16 0
-20 -6 12 0
-19 -9 -8 0
19 1 -10 0
19 7 -8 0
12 -3 -5 0
16 10 -9 0
-9 16 -7 0
-13 -14 2 0
12 1 13 0
-5 -17 -3 0
8 19 14 0
19 9 -18 0
14 9 12 0
-20 6 -2 0
-6 20 -19 0
-4 -20 6 0
12 -2 -4 0
-20 -8 -4 0
4 11 -9 0
-13 -2 11 0
-19 -13 -8 0
-13 8 16 0
5 -1 2 0
6 -3 9 0
8 -16 15 0
-6 2 -16 0
