c Coffinhead hard-core n=20 seed=3 ratio=4.0
p cnf 20 80
-4 20 -19 0
6 12 -18 0
-11 -19 9 0
-19 3 -7 0
11 -3 -1 0
1 2 7 0
5 19 18 0
-20 -13 4 0
-4 -18 -20 0
-12 -6 2 0
-7 -6 -18 0
-2 5 3 0
-20 -16 3 0
5 -10 19 0
-15 -10 2 0
-7 -5 -3 0
4 17 9 0
-9 3 -11 0
16 -19 -12 0
-20 -19 10 0
-12 -19 -5 0
10 8 3 0
3 -16 -12 0
15 20 -10 0
-4 2 -9 0
-17 3 10 0
16 -19 12 0
-9 14 -7 0
15 20 -13 0
3 -18 -17 0
-16 -5 -10 0
20 16 11 0
16 -18 -20 0
1 -11 -2 0
1 -15 17 0
-2 8 -4 0
-17 -7 -15 0
1 11 3 0
18 13 -8 0
-19 -5 6 0
-8 14 -20 0
5 16 11 0
-10 2 7 0
-9 10 -7 0
-2 -13 -15 0
3 -10 -8 0
15 1 18 0
14 18 -4 0
6 3 15 0
3 -20 10 0
3 4 -19 0
12 1 2 0
5 -7 -1 0
-19 -13 -11 0
-1 -11 -12 0
-8 15 5 0
-10 19 -1 0
3 14 -5 0
-13 20 6 0
-11 20 -9 0
7 -10 9 0
12 20 -16 0
-2 19 4 0
3 -9 -5 0
-11 -19 -7 0
6 2 -19 0
7 13 10 0
1 10 13 0
4 -7 -15 0
10 19 13 0
19 -9 -10 0
-16 -14 -4 0
12 -1 -3 0
6 4 1 0
-6 -8 -18 0
1 7 19 0
-13 -15 -6 0
11 2 -12 0
-14 8 5 0
18 19 9 0
