c Coffinhead hard-core n=20 seed=21 ratio=4.0
p cnf 20 80
18 -2 14 0
-20 -6 -5 0
-18 12 3 0
16 8 18 0
13 -20 -7 0
12 4 11 0
12 2 1 0
-8 -3 6 0
15 19 -12 0
-16 -12 18 0
-2 -20 15 0
-1 -19 -12 0
15 -9 13 0
-12 -13 -4 0
-9 -12 -10 0
10 -14 -15 0
-5 -10 -16 0
-3 10 -13 0
-5 -11 10 0
-9 18 1 0
16 -11 -15 0
-12 9 17 0
1 -18 -14 0
-18 6 11 0
-12 -4 -6 0
4 12 2 0
1 -18 -16 0
-4 -18 9 0
-7 4 16 0
2 -19 -13 0
-8 7 1 0
-10 -4 -2 0
12 -1 -19 0
19 -3 2 0
-15 3 1 0
-13 -10 20 0
4 -20 5 0
-6 -15 17 0
20 3 -4 0
-4 -6 7 0
18 -20 5 0
-12 -8 -1 0
3 -20 -1 0
-17 -15 -4 0
19 5 -15 0
-6 -3 -19 0
-6 11 5 0
9 -1 14 0
16 -12 8 0
-1 -7 -16 0
3 -5 20 0
-7 -10 3 0
20 -8 7 0
-6 -15 12 0
4 -13 -2 0
9 -13 -7 0
16 19 -9 0
-6 18 -20 0
20 -1 3 0
-4 -7 8 0
-4 3 20 0
-9 10 12 0
-11 -18 13 0
12 -6 3 0
3 -1 6 0
-20 12 1 0
8 -19 -5 0
3 11 16 0
-18 6 -2 0
-1 -12 9 0
-8 -15 17 0
8 2 -19 0
-19 -12 -9 0
-13 -3 16 0
-13 -6 -5 0
-14 -16 6 0
-18 -2 4 0
-12 -5 2 0
-6 19 -7 0
-15 8 9 0
