c Coffinhead hard-core n=20 seed=32 ratio=4.0
p cnf 20 80
-13 -1 15 0
-19 -6 -12 0
11 7 -20 0
8 20 -7 0
-9 -14 -15 0
1 -14 3 0
5 6 -15 0
-4 17 -7 0
-16 -1 17 0
20 -2 7 0
6 9 -11 0
5 13 16 0
-1 -12 -3 0
-3 -12 -5 0
-16 5 -18 0
12 -2 6 0
-6 -3 5 0
-1 3 7 0
1 -16 -20 0
18 -17 -14 0
-18 -14 -5 0
-3 -7 -19 0
9 17 12 0
19 14 -17 0
1 -12 -10 0
-19 -9 -17 0
2 -16 -15 0
3 4 9 0
-3 -17 19 0
11 -17 12 0
10 -6 16 0
-12 9 1 0
-1 14 -8 0
8 3 -1 0
3 -15 -17 0
17 -8 -19 0
2 -9 12 0
12 -19 -17 0
-11 17 -18 0
-13 -10 18 0
14 6 -19 0
-4 14 -10 0
-10 -11 -14 0
-18 3 -20 0
10 2 8 0
-13 -7 8 0
-14 1 12 0
18 5 -20 0
-20 -11 -2 0
17 11 -9 0
13 -14 18 0
-17 -12 14 0
-11 -1 10 0
-5 6 12 0
-2 -17 -9 0
-12 5 -13 0
14 -5 -20 0
-3 -16 -15 0
-15 3 1 0
-18 -14 12 0
17 19 -12 0
3 -4 8 0
-4 8 2 0
15 5 3 0
14 6 16 0
6 19 7 0
15 -16 10 0
9 -11 -2 0
10 -18 -20 0
16 -19 -6 0
10 -16 6 0
18 -14 8 0
-9 12 -1 0
-7 10 -5 0
8 -16 9 0
-6 -12 -3 0
-19 7 -6 0
-8 5 -16 0
-3 -8 14 0
-2 11 3 0
