c Coffinhead hard-core n=20 seed=18 ratio=4.0
p cnf 20 80
19 3 -12 0
-11 15 -6 0
10 6 -7 0
-17 2 -18 0
-11 -10 -20 0
10 9 1 0
7 -4 18 0
3 -13 20 0
-1 -2 -15 0
16 -4 -6 0
9 19 12 0
16 -6 -8 0
13 2 10 0
12 9 8 0
3 -7 -2 0
2 -11 -9 0
10 14 -2 0
12 5 1 0
11 1 6 0
-1 7 3 0
-7 3 -11 0
6 -4 -14 0
-8 15 16 0
19 5 12 0
16 6 13 0
-11 13 10 0
8 11 -15 0
16 15 -14 0
4 13 -9 0
10 14 -1 0
19 10 -6 0
-10 -9 -16 0
2 16 1 0
2 -14 -19 0
11 -17 10 0
-6 4 20 0
-5 7 14 0
-17 16 -20 0
-5 17 6 0
3 -17 -5 0
-6 20 17 0
-15 -5 8 0
19 -12 -4 0
-19 -16 -13 0
-15 -5 1 0
20 4 17 0
-13 1 -18 0
-19 -1 -6 0
4 -14 -13 0
12 -20 -13 0
-13 1 8 0
1 7 5 0
3 20 -17 0
-2 -16 -5 0
-20 7 -11 0
11 -1 -12 0
-20 -12 -19 0
2 18 -12 0
-15 1 -13 0
13 -14 -2 0
-19 -3 14 0
-18 -2 -9 0
-13 5 -10 0
1 17 14 0
-18 14 20 0
2 14 -13 0
15 12 18 0
-19 -10 -20 0
-19 10 1 0
-20 3 16 0
2 -12 18 0
15 -8 -7 0
14 -18 4 0
-18 17 -16 0
-8 16 7 0
9 -7 2 0
10 -16 -19 0
6 -2 4 0
1 -15 14 0
-2 8 3 0
