c Coffinhead hard-core n=20 seed=73 ratio=4.0
p cnf 20 80
10 18 -12 0
12 -2 17 0
-7 19 8 0
-10 16 13 0
-15 13 16 0
-10 5 2 0
-6 -13 -5 0
20 11 -1 0
3 -18 14 0
-11 18 1 0
3 9 5 0
18 -16 5 0
7 -2 -19 0
20 -19 18 0
-10 -8 -14 0
-3 -5 -13 0
20 6 -11 0
-12 4 -20 0
-4 8 14 0
-16 -14 -7 0
-19 20 -7 0
2 -20 -10 0
-10 -4 7 0
-9 -4 5 0
3 6 16 0
20 -9 -1 0
2 15 12 0
8 12 11 0
-4 20 -3 0
2 12 8 0
-13 7 16 0
2 -3 -18 0
17 -4 -7 0
6 12 2 0
10 -12 -18 0
2 3 -5 0
14 6 3 0
14 -5 20 0
-19 -15 -14 0
-14 5 -7 0
20 -10 3 0
19 -13 -7 0
2 -10 -20 0
2 -15 -6 0
-17 6 20 0
11 -17 9 0
-11 7 -5 0
-20 8 14 0
20 9 5 0
1 13 11 0
19 -18 14 0
-15 -14 -4 0
15 -17 -18 0
-1 20 8 0
15 -4 6 0
12 2 -1 0
-6 11 -19 0
-17 -14 -8 0
-19 -18 -14 0
18 -11 19 0
19 8 -15 0
16 -5 -18 0
15 10 5 0
-16 6 -7 0
3 -14 -15 0
-19 -17 14 0
8 -18 -15 0
-2 19 -8 0
17 -5 3 0
2 9 5 0
9 4 3 0
-13 1 -4 0
-1 10 -4 0
-4 -12 19 0
20 -9 -13 0
-13 20 -3 0
-15 7 -20 0
-3 -7 -11 0
1 -11 -12 0
-15 10 -2 0
