c Coffinhead hard-core n=20 seed=35 ratio=4.0
p cnf 20 80
-8 4 2 0
1 7 -10 0
-6 -20 16 0
10 2 -20 0
-9 14 -7 0
-3 -9 -6 0
-19 15 3 0
-4 -5 10 0
-2 11 3 0
-20 -14 17 0
7 6 10 0
1 -20 19 0
9 -13 -14 0
-10 13 -1 0
-15 -5 16 0
15 -12 4 0
2 -6 12 0
-18 5 20 0
-7 -19 2 0
-20 -11 2 0
13 -11 -20 0
-15 18 12 0
1 -3 -15 0
-6 9 -13 0
18 -7 14 0
-19 -17 11 0
-14 -17 -15 0
6 8 13 0
-18 11 2 0
-20 12 6 0
4 7 3 0
7 2 13 0
-3 -10 -5 0
-5 -2 -7 0
12 19 -17 0
15 7 11 0
-11 -20 10 0
4 -14 3 0
13 15 -1 0
14 -4 6 0
-9 -13 -10 0
-16 15 -1 0
16 -13 20 0
-16 1 -15 0
18 19 -1 0
-16 10 13 0
-7 6 1 0
-18 13 3 0
2 16 20 0
2 -16 -7 0
9 -4 8 0
-14 -17 4 0
2 -19 -18 0
13 20 12 0
-11 -1 5 0
-16 -17 -19 0
12 16 9 0
17 13 20 0
-15 -4 -14 0
6 2 -17 0
4 6 -12 0
-5 7 -14 0
4 -18 20 0
10 4 18 0
8 16 -7 0
1 4 16 0
5 -11 -4 0
2 -3 18 0
1 16 18 0
4 3 8 0
-4 -2 -11 0
16 -5 -9 0
-15 -7 9 0
4 -13 3 0
-8 15 -18 0
-18 -4 -20 0
8 -14 -16 0
-1 -18 -7 0
-9 -6 12 0
18 14 11 0
