c Coffinhead hard-core n=20 seed=65 ratio=4.0
p cnf 20 80
2 6 14 0
14 -9 -11 0
7 14 17 0
-7 -16 9 0
-10 -17 8 0
-17 -16 9 0
9 -2 -18 0
-18 -12 -10 0
20 -9 -13 0
-20 7 15 0
-18 -9 -14 0
8 9 6 0
-15 -6 -20 0
-20 4 -8 0
-5 -9 -3 0
10 11 -14 0
-18 -1 -4 0
11 -13 6 0
16 -9 15 0
-4 -19 11 0
-10 2 -3 0
6 11 10 0
2 13 -4 0
-8 7 5 0
13 14 -9 0
-19 4 -15 0
6 13 -20 0
-14 17 13 0
2 -11 -3 0
-2 -15 -9 0
-12 11 10 0
-19 11 13 0
18 20 17 0
-18 -12 14 0
-20 16 -18 0
19 1 -14 0
9 -19 -6 0
20 -12 -18 0
8 -2 -3 0
13 4 -8 0
19 -14 -20 0
16 5 6 0
14 -15 17 0
3 -14 13 0
6 20 8 0
18 -11 -9 0
9 -12 3 0
-19 18 -13 0
9 -7 -16 0
2 3 -10 0
8 4 -3 0
2 4 -11 0
7 -13 -17 0
-20 17 8 0
-9 -7 -1 0
-20 -8 -15 0
13 -12 -19 0
-18 -6 20 0
5 -16 1 0
-8 10 -2 0
3 -6 20 0
12 -15 -16 0
-18 19 -3 0
-3 20 1 0
17 11 -6 0
7 3 -20 0
-7 9 -10 0
1 -12 8 0
-4 -5 -14 0
6 16 -18 0
-7 16 -4 0
-5 9 14 0
-18 12 3 0
-16 12 20 0
-12 -16 -5 0
1 -12 13 0
-19 -13 -2 0
-20 4 -1 0
-20 -13 -7 0
-12 1 -13 0
