c Coffinhead hard-core n=20 seed=7 ratio=4.0
p cnf 20 80
-8 4 11 0
-6 12 -14 0
13 -19 -10 0
18 -20 -15 0
-4 10 -8 0
14 -13 -12 0
-19 -2 11 0
-2 10 -3 0
-19 7 20 0
-14 1 -5 0
5 14 2 0
5 1 -16 0
6 7 1 0
6 -1 19 0
-16 19 13 0
-3 -13 -8 0
-7 14 1 0
-3 14 -15 0
-14 -12 -10 0
-3 13 -1 0
15 -6 -4 0
-3 10 2 0
2 8 -20 0
14 8 3 0
-15 -4 -18 0
-11 8 -10 0
7 -11 -1 0
6 -11 7 0
4 16 -7 0
-8 -5 -9 0
-3 9 6 0
-5 -4 -7 0
-15 16 7 0
-12 -16 -8 0
-20 4 13 0
-11 -14 7 0
8 10 9 0
19 2 12 0
-12 -1 4 0
16 -19 -12 0
-16 10 18 0
-14 16 -18 0
-10 20 -19 0
13 -3 -10 0
17 3 14 0
3 -12 -10 0
-12 -6 13 0
13 1 -14 0
-9 12 16 0
16 -2 -15 0
-4 -14 -5 0
10 -8 11 0
-15 -8 -16 0
13 9 -12 0
-2 -4 -19 0
-9 -6 16 0
-3 1 -14 0
-9 10 -12 0
1 12 17 0
10 11 -14 0
1 -7 -6 0
13 18 -6 0
-5 -8 -12 0
-2 -16 -13 0
10 -11 7 0
-3 5 -14 0
10 -16 -14 0
19 5 13 0
-9 17 18 0
17 -19 14 0
-4 -15 -9 0
-7 9 19 0
9 8 -15 0
-9 19 16 0
-6 -13 -11 0
-16 9 5 0
12 2 -20 0
7 -3 -9 0
12 8 15 0
9 -14 -3 0
