c Coffinhead hard-core n=20 seed=116 ratio=4.0
p cnf 20 80
-1 13 7 0
1 -9 -10 0
-14 9 5 0
19 -11 -1 0
5 -20 1 0
-19 -3 1 0
-11 -2 8 0
-20 16 -5 0
14 19 1 0
-19 1 -3 0
1 11 19 0
-16 9 17 0
19 -6 -15 0
-3 17 -16 0
-5 -7 14 0
20 19 -6 0
20 9 -5 0
2 -1 9 0
8 7 3 0
-17 -20 -6 0
-3 -6 11 0
-14 -19 -4 0
15 -17 -16 0
1 -20 -10 0
9 2 -12 0
-9 -20 -14 0
2 -15 20 0
-5 2 9 0
16 1 11 0
-14 5 19 0
-7 -18 -15 0
-1 11 20 0
18 7 -6 0
-6 -4 1 0
12 -8 2 0
18 9 -6 0
-11 19 6 0
18 16 -2 0
8 -18 -11 0
2 11 -9 0
-17 -10 -20 0
15 -11 -20 0
12 19 -7 0
-9 3 19 0
20 -2 1 0
19 -10 -7 0
18 -3 -5 0
4 -2 -18 0
5 12 -7 0
4 -7 -13 0
-14 3 -4 0
-19 -18 14 0
-5 2 -19 0
-15 -10 19 0
-12 -13 -2 0
11 -9 -18 0
20 11 -9 0
-5 15 8 0
-15 -6 4 0
5 16 6 0
2 -19 -5 0
20 -14 -10 0
-1 16 -12 0
18 -8 -2 0
-13 -15 -19 0
-20 -13 -19 0
20 -2 -3 0
-12 -9 -14 0
11 -20 -2 0
-5 -6 -1 0
-7 -13 9 0
-15 6 9 0
14 13 12 0
18 -15 -6 0
2 20 -11 0
8 -2 -18 0
1 4 -15 0
1 12 9 0
15 -1 11 0
-8 -7 -2 0
