c Coffinhead hard-core n=20 seed=5 ratio=4.0
p cnf 20 80
6 2 -9 0
-3 -20 -9 0
-13 7 19 0
12 10 -19 0
-20 3 -4 0
10 13 -1 0
19 -11 8 0
12 4 -1 0
19 15 -16 0
15 -7 -11 0
-10 4 -1 0
-19 -8 16 0
2 7 -15 0
-13 -15 16 0
1 10 14 0
-8 -10 19 0
-19 -4 -12 0
-4 -20 12 0
15 -8 -5 0
19 15 -10 0
8 -16 15 0
15 17 9 0
-3 13 -8 0
2 11 18 0
-10 -13 15 0
14 -17 16 0
-12 1 8 0
3 -4 13 0
-3 4 -10 0
15 -19 3 0
19 16 -4 0
-10 -5 19 0
5 20 -11 0
18 -19 -17 0
-18 11 -17 0
11 -16 15 0
-5 -16 -8 0
-13 10 -16 0
-14 -20 -18 0
-16 14 17 0
-6 18 17 0
-7 -18 -20 0
15 -16 -12 0
18 12 4 0
-12 11 -9 0
-6 10 -16 0
-10 7 15 0
-11 -15 -14 0
-7 13 -19 0
20 12 1 0
-6 4 -20 0
8 19 -13 0
-17 -11 14 0
19 -5 1 0
17 -1 -18 0
6 3 10 0
-4 -17 19 0
-12 7 11 0
-18 -15 4 0
8 -5 9 0
-10 -16 8 0
-10 -8 1 0
9 -20 2 0
16 4 -18 0
-19 4 14 0
18 20 -4 0
6 -11 -12 0
-20 -10 7 0
12 16 8 0
17 18 -16 0
10 3 -2 0
6 8 -1 0
19 -4 15 0
16 13 4 0
-3 -11 19 0
13 14 5 0
-8 13 18 0
17 8 -11 0
-12 20 -17 0
-12 16 -15 0
