c Coffinhead hard-core n=20 seed=46 ratio=4.0
p cnf 20 80
19 -15 -12 0
1 16 4 0
7 10 14 0
-2 -15 11 0
-3 -20 -9 0
19 5 4 0
-7 10 -18 0
-12 -16 4 0
19 16 11 0
-20 -13 -5 0
-16 8 14 0
15 8 18 0
-1 12 15 0
12 7 -19 0
15 -3 -1 0
3 13 19 0
19 20 -9 0
6 -18 -7 0
12 4 -7 0
7 -3 -1 0
5 20 -11 0
-14 -20 2 0
-20 14 10 0
11 13 -7 0
20 -11 -7 0
3 -7 18 0
7 -15 12 0
-16 -19 11 0
-12 7 15 0
-3 12 17 0
-8 1 10 0
-4 14 2 0
2 -9 -11 0
-10 4 8 0
12 -9 20 0
-15 -19 5 0
-1 -3 8 0
-11 -5 10 0
12 9 8 0
-7 6 17 0
12 -17 -20 0
5 10 3 0
18 17 6 0
-4 13 12 0
8 7 16 0
-6 -14 -11 0
-7 -9 -19 0
9 -14 16 0
19 -20 15 0
-8 3 10 0
-10 11 3 0
3 -7 11 0
17 18 -16 0
-17 -18 -2 0
-3 20 13 0
1 -10 -4 0
10 2 8 0
-10 16 8 0
-13 16 3 0
-11 -15 7 0
-19 -11 -9 0
-19 -18 4 0
-4 -7 -5 0
-5 12 -3 0
-18 10 -4 0
-12 14 -11 0
-20 8 2 0
-17 -1 -15 0
-11 14 10 0
11 4 -3 0
-14 15 1 0
16 20 12 0
-6 2 1 0
-3 1 -7 0
-19 -13 6 0
4 18 -16 0
2 -16 10 0
-15 7 20 0
17 -10 8 0
13 -9 -1 0
