c Coffinhead hard-core n=20 seed=57 ratio=4.0
p cnf 20 80
14 -10 -5 0
5 -14 3 0
1 17 -12 0
-9 -20 -4 0
10 13 -6 0
7 20 -17 0
2 7 -6 0
-4 -15 -12 0
3 -5 6 0
-3 11 -18 0
-1 -9 -10 0
-5 -15 -10 0
-12 -15 -9 0
7 -12 5 0
6 -10 13 0
2 8 -1 0
2 -5 -12 0
2 -14 1 0
-1 15 2 0
2 7 -9 0
-3 -17 -7 0
-3 8 -5 0
-12 5 11 0
7 -12 -4 0
-20 18 -10 0
5 10 -8 0
4 -8 -11 0
2 -3 -19 0
-6 17 10 0
17 -14 -18 0
20 -14 -10 0
-15 -12 -13 0
4 14 11 0
14 -17 2 0
16 -13 12 0
19 15 -10 0
-19 -7 10 0
12 -18 15 0
-18 -2 -7 0
-3 -16 -17 0
7 -11 -20 0
5 15 -11 0
17 5 -10 0
-20 -1 -11 0
-14 -9 8 0
-3 -14 -16 0
-1 -8 -15 0
-15 -18 -2 0
10 -18 15 0
6 -14 -19 0
-18 10 -17 0
-7 2 12 0
11 -1 16 0
17 12 2 0
3 -17 -11 0
-3 -18 20 0
-1 6 -11 0
-15 2 -13 0
-13 -6 -7 0
20 -6 -8 0
-7 -15 -20 0
20 -4 -6 0
-11 -9 -5 0
6 -1 2 0
-5 12 2 0
6 7 11 0
10 -15 -8 0
-3 6 11 0
-18 -5 -2 0
-11 -15 -10 0
-2 20 -8 0
-17 5 4 0
4 20 11 0
-10 17 -19 0
-12 3 4 0
15 10 14 0
1 14 5 0
-20 6 2 0
-1 19 -15 0
-18 -8 10 0
