c Coffinhead hard-core n=20 seed=37 ratio=4.0
p cnf 20 80
18 10 15 0
-9 -19 -12 0
11 -1 -17 0
-4 -11 -18 0
-2 11 -7 0
16 -1 -2 0
-13 15 -7 0
2 1 9 0
9 10 -20 0
-19 6 -12 0
16 -19 9 0
-9 12 -8 0
-7 19 -10 0
-19 -17 5 0
1 15 -6 0
-11 14 20 0
-6 7 11 0
4 5 -11 0
13 20 17 0
4 15 -13 0
-12 19 10 0
-16 -8 -14 0
-15 14 4 0
5 3 -11 0
-2 -15 -5 0
18 11 8 0
-9 -14 1 0
8 -1 13 0
18 15 -3 0
-10 -18 -9 0
-18 -5 -2 0
15 20 -10 0
5 -17 -13 0
-6 12 20 0
11 -12 16 0
-19 16 6 0
7 14 -3 0
-12 6 1 0
3 5 17 0
12 -19 6 0
15 -20 -10 0
14 7 -3 0
1 14 7 0
-3 -9 -4 0
9 -11 -10 0
-15 -4 11 0
-6 -11 2 0
18 10 8 0
3 -2 13 0
-9 -4 11 0
6 -10 -7 0
11 -2 -12 0
13 -7 -16 0
2 -17 7 0
8 -19 -2 0
-19 -8 -12 0
3 -19 -5 0
13 2 -15 0
-7 18 -3 0
11 3 8 0
-7 16 6 0
7 -13 -11 0
-2 4 18 0
19 -4 -7 0
-20 -13 -10 0
-17 -9 3 0
-3 7 9 0
-6 4 -5 0
-18 -11 -13 0
-2 -3 -1 0
18 8 -7 0
1 9 14 0
1 -14 5 0
-16 10 -11 0
-18 -5 15 0
18 -14 4 0
-3 12 2 0
6 20 17 0
-17 12 9 0
18 -14 -10 0
