c Coffinhead hard-core n=20 seed=53 ratio=4.0
p cnf 20 80
10 -2 -12 0
-14 -9 -16 0
20 -10 18 0
-2 -17 16 0
17 8 -11 0
6 -9 -5 0
-20 -1 7 0
-9 11 16 0
2 7 8 0
5 -19 -20 0
9 12 -14 0
12 7 -6 0
-3 -7 11 0
8 -15 12 0
-11 15 12 0
-15 20 10 0
-9 -14 -11 0
-5 9 -6 0
14 17 -18 0
-20 -8 -1 0
-20 7 -3 0
-6 7 -15 0
-4 5 -14 0
4 -10 -19 0
4 -12 -3 0
1 2 10 0
8 -3 17 0
15 -16 14 0
12 -7 18 0
18 13 2 0
20 -14 9 0
1 2 20 0
20 -19 11 0
11 -8 -15 0
3 -11 -7 0
-12 10 2 0
3 -7 8 0
14 -17 -4 0
-19 8 -16 0
-11 15 -9 0
11 -9 7 0
-4 9 -8 0
-8 -12 14 0
-4 -16 7 0
16 4 5 0
17 18 -3 0
5 -18 -9 0
1 19 17 0
15 9 -14 0
19 13 5 0
-16 -3 5 0
-2 -8 -20 0
-13 9 11 0
17 -15 -11 0
-5 -6 -7 0
14 -15 10 0
18 -3 -1 0
3 -10 1 0
-16 -3 9 0
16 -1 -18 0
-3 10 -15 0
-3 -1 -16 0
3 12 18 0
-11 -20 13 0
10 3 -13 0
3 1 -2 0
-6 5 -16 0
-16 -7 10 0
-13 -1 -5 0
-4 9 3 0
-11 20 12 0
-3 -5 -4 0
10 -20 16 0
-1 -13 -15 0
-13 19 -12 0
18 -11 7 0
-4 -16 -14 0
2 17 6 0
9 5 1 0
13 -20 -11 0
