c Coffinhead hard-core n=100 seed=3 ratio=4.0
p cnf 100 400
-84 24 -96 0
79 52 6 0
-19 -57 -59 0
-6 -43 63 0
-27 71 -63 0
-61 1 22 0
47 25 19 0
38 -80 -53 0
64 61 59 0
53 3 33 0
-58 57 65 0
1 -85 -38 0
40 65 7 0
23 5 -50 0
19 -15 -10 0
22 -67 -45 0
-43 84 77 0
89 -29 63 0
-91 16 -99 0
-32 -60 -39 0
80 26 -21 0
-53 73 98 0
-76 -88 -16 0
-96 -32 95 0
80 -70 -84 0
22 -69 -17 0
23 90 56 0
-59 32 -49 0
94 -7 95 0
100 -13 43 0
-98 -37 -16 0
-45 -50 40 0
40 -34 60 0
82 41 -19 0
-38 9 -93 0
-50 -21 -7 0
78 25 48 0
-64 -37 -87 0
-35 81 11 0
83 58 13 0
-8 -59 -65 0
46 -88 34 0
28 -17 40 0
-94 6 95 0
-40 -10 77 0
-46 7 -23 0
17 -55 63 0
-30 -8 75 0
21 38 54 0
58 -84 6 0
23 15 3 0
-100 10 43 0
44 -19 52 0
1 82 45 0
-87 -61 -79 0
-93 -51 -81 0
-51 -12 -88 0
15 85 -10 0
79 -81 43 0
94 -25 -93 0
13 90 -4 0
1 -52 -15 0
96 -87 30 0
96 62 39 0
-19 4 83 0
-49 -85 -31 0
-39 -27 6 0
2 -59 47 0
93 10 41 0
30 73 44 0
-67 -95 10 0
99 53 59 0
-69 -30 -16 0
-14 -4 72 0
-81 -3 26 0
4 21 -6 0
-48 -98 41 0
27 39 -33 0
-35 -66 51 0
2 11 29 0
95 -56 90 0
-10 -54 -60 0
-55 63 66 0
-92 -98 -62 0
-7 18 15 0
33 25 -12 0
49 53 86 0
89 47 -70 0
-90 -76 49 0
31 82 -28 0
16 22 -39 0
50 -89 -14 0
34 -85 -45 0
78 12 -98 0
68 -80 -30 0
72 40 18 0
38 52 58 0
-38 -25 28 0
60 96 55 0
80 -15 -16 0
57 80 75 0
95 -83 79 0
-25 53 -33 0
-20 40 -85 0
28 -33 43 0
-38 -68 -21 0
24 33 -3 0
-69 -68 30 0
65 -75 -69 0
-78 4 8 0
-27 43 -64 0
86 10 79 0
28 -62 18 0
74 -66 -39 0
-79 -45 75 0
70 -53 57 0
-86 -60 73 0
-23 -67 -22 0
-51 -94 -89 0
-61 -27 -37 0
-31 94 7 0
-96 71 -3 0
-4 -47 6 0
-56 55 15 0
-50 39 84 0
-98 -14 -38 0
39 -90 -37 0
-30 7 -60 0
78 22 26 0
-43 -28 -39 0
26 -10 42 0
-33 -35 -81 0
-88 -14 29 0
-37 -9 78 0
22 -16 -95 0
17 33 64 0
-98 -41 61 0
-20 -36 -53 0
-43 -12 -100 0
74 5 -30 0
-81 48 11 0
-7 64 -8 0
49 -45 -5 0
-98 51 -88 0
26 -100 32 0
-75 90 -27 0
-28 -64 8 0
90 -39 95 0
-21 -52 -82 0
-3 77 -22 0
-3 68 -50 0
48 51 -92 0
-3 29 -76 0
-93 -83 71 0
66 -20 -51 0
59 77 -93 0
-13 72 75 0
-13 48 -86 0
59 93 88 0
84 -76 36 0
-66 54 -73 0
5 3 65 0
86 -20 6 0
83 -18 -20 0
-50 -42 -3 0
84 -35 -100 0
88 82 -22 0
-89 -16 -69 0
70 -18 76 0
59 48 55 0
-85 -68 62 0
-60 -22 99 0
-40 79 -37 0
32 72 -92 0
93 5 76 0
13 4 -86 0
-92 -63 1 0
-90 100 -84 0
-48 -69 -52 0
-86 -62 -66 0
-8 24 -72 0
73 12 100 0
70 -95 -38 0
-68 47 21 0
-49 -17 -21 0
71 5 -97 0
-32 -47 -23 0
-87 -24 20 0
-24 -45 75 0
-61 -53 28 0
-10 45 -38 0
-27 -48 38 0
34 50 -36 0
-93 -51 58 0
1 13 73 0
28 -55 62 0
73 31 9 0
48 15 2 0
29 38 -88 0
38 -71 73 0
-72 -25 17 0
90 46 -70 0
29 -33 -79 0
1 71 -25 0
82 71 -6 0
1 54 -16 0
68 -60 87 0
39 -87 79 0
-22 -1 51 0
69 48 -89 0
-68 -94 -48 0
-48 -93 90 0
56 -59 -63 0
72 -47 -16 0
-98 -19 5 0
-78 -50 70 0
-73 33 -16 0
76 -2 -25 0
15 48 -3 0
61 1 79 0
-42 5 63 0
15 -75 -28 0
-64 62 -14 0
-93 73 64 0
46 -25 72 0
-7 -90 -20 0
27 -81 -47 0
4 20 -21 0
-17 -71 43 0
51 93 21 0
89 33 63 0
-45 -74 -31 0
-69 -19 -67 0
27 -67 93 0
-85 83 94 0
-50 -76 -34 0
90 -96 -22 0
99 66 -50 0
-93 -45 -40 0
-31 84 52 0
63 -23 -7 0
-93 28 5 0
94 73 -17 0
93 -8 13 0
89 83 44 0
-89 50 -43 0
70 -50 -99 0
-20 -55 -93 0
-37 -62 -92 0
-61 -71 -38 0
23 90 -86 0
80 -56 27 0
-43 -26 52 0
45 -28 32 0
40 75 -62 0
-58 -57 10 0
-4 59 -1 0
66 46 -59 0
25 4 -31 0
2 -98 80 0
-15 76 -99 0
-72 -82 25 0
43 -41 98 0
-10 -82 50 0
91 -43 -31 0
-61 69 -34 0
-34 8 32 0
-52 64 -56 0
-17 36 -75 0
37 69 1 0
-79 -17 -58 0
39 -29 24 0
58 21 -64 0
-81 34 -93 0
-57 72 -17 0
-25 -4 54 0
62 -72 -97 0
-96 58 37 0
-90 -48 37 0
74 66 -34 0
-48 81 -94 0
-88 70 78 0
57 41 -72 0
-48 66 61 0
-74 3 -79 0
20 -74 -67 0
-53 -90 -27 0
-42 -7 31 0
67 -19 42 0
-68 -83 79 0
-28 68 -77 0
30 12 25 0
88 -19 -23 0
71 39 -4 0
-64 -56 36 0
-27 67 -54 0
-79 -97 -89 0
-50 38 -76 0
-43 44 -93 0
77 72 92 0
99 17 25 0
25 2 91 0
58 91 -36 0
95 -21 59 0
38 95 20 0
-63 -80 -67 0
44 -18 95 0
24 27 3 0
12 -3 49 0
-16 -77 -15 0
-57 -49 -98 0
53 -87 38 0
-65 50 -99 0
-9 96 45 0
-20 40 7 0
-38 -80 64 0
41 -56 -15 0
-79 35 90 0
45 -86 -48 0
-60 -43 -58 0
64 -43 -82 0
30 -10 96 0
-77 38 2 0
79 26 11 0
-33 -74 -48 0
-10 -81 -35 0
21 61 -84 0
-86 -7 54 0
-5 83 -76 0
-34 -100 38 0
-84 -6 11 0
81 -19 -57 0
-9 -58 -1 0
-63 -14 39 0
-44 -80 -38 0
82 -41 95 0
16 27 86 0
-21 -7 -81 0
82 -29 57 0
-80 72 64 0
43 72 82 0
73 -32 49 0
-27 78 82 0
-72 14 -20 0
-72 -12 73 0
24 37 62 0
-79 -96 -83 0
83 12 74 0
24 -41 -48 0
40 -62 -18 0
60 37 -76 0
-99 15 -22 0
34 3 37 0
25 16 -48 0
41 -81 85 0
67 -39 -16 0
49 -2 65 0
7 -36 60 0
51 68 -56 0
13 -99 -7 0
88 60 -34 0
-61 -33 -42 0
8 -56 -53 0
63 -84 82 0
32 77 74 0
88 37 -93 0
62 24 82 0
70 26 31 0
69 -8 -86 0
-70 3 -94 0
1 -77 70 0
-97 -50 -35 0
-8 25 50 0
-71 -13 -5 0
15 27 18 0
-47 10 15 0
4 -75 1 0
47 48 66 0
98 -94 66 0
25 72 -73 0
76 -64 46 0
-82 -54 69 0
10 87 51 0
28 54 65 0
-24 -100 77 0
86 -45 -35 0
46 1 -99 0
-49 39 26 0
19 -1 13 0
36 80 -51 0
-70 88 -16 0
83 80 -37 0
-13 -100 57 0
93 18 -79 0
-93 76 -11 0
30 -61 -65 0
32 69 100 0
29 -35 -28 0
-32 -33 -49 0
-99 -55 -11 0
