c Coffinhead hard-core n=100 seed=23 ratio=4.0
p cnf 100 400
-60 -8 -72 0
-45 86 -74 0
18 -8 81 0
4 -22 16 0
-44 67 -63 0
27 -46 29 0
-59 21 85 0
-91 -74 -85 0
-70 51 -35 0
29 86 -66 0
-25 -12 7 0
26 77 31 0
91 -23 88 0
10 94 -52 0
-52 33 94 0
94 76 -4 0
11 -4 -40 0
4 -10 48 0
-18 25 71 0
27 98 -9 0
-86 -93 32 0
-42 61 -13 0
74 -10 1 0
59 85 17 0
18 48 -65 0
39 -57 22 0
17 -45 9 0
-98 -69 49 0
-55 1 86 0
68 -63 93 0
-21 60 -63 0
99 54 32 0
76 60 -17 0
23 -86 -30 0
84 -58 -47 0
99 19 11 0
-63 -2 -34 0
43 15 -42 0
45 -19 -100 0
-22 -46 76 0
2 85 -32 0
67 60 77 0
-88 77 -84 0
65 97 -14 0
26 -17 -24 0
14 16 3 0
-6 -95 -71 0
19 -89 -85 0
54 -97 -11 0
64 94 -52 0
39 11 -62 0
10 26 89 0
-55 80 44 0
4 -72 -73 0
100 57 -15 0
-42 82 25 0
-31 58 -37 0
-22 59 92 0
44 -97 40 0
-33 30 -32 0
47 -6 -16 0
-98 -9 -70 0
60 22 46 0
64 -87 -81 0
94 -57 -3 0
-88 -51 -22 0
-85 36 30 0
-29 -66 38 0
36 -96 -4 0
30 -21 81 0
53 18 -96 0
77 -35 -14 0
-10 -12 -40 0
-29 -19 -5 0
-85 -35 30 0
-57 -99 13 0
34 -31 -35 0
-89 -2 8 0
29 13 -74 0
60 64 18 0
8 68 -18 0
-9 76 10 0
-14 2 -48 0
-8 -36 67 0
84 -40 -75 0
91 87 -66 0
-68 32 -78 0
-79 58 9 0
23 -98 37 0
-6 -33 74 0
-49 -92 -8 0
58 -95 -85 0
75 97 52 0
-46 -30 16 0
-99 -90 24 0
1 -11 51 0
-45 -19 -82 0
82 -55 20 0
69 92 -38 0
-66 -7 13 0
-86 -27 87 0
-57 -93 -71 0
79 -81 -3 0
-14 27 59 0
62 78 53 0
89 18 77 0
45 -8 -9 0
48 -35 -74 0
91 22 -34 0
73 -35 5 0
6 -41 39 0
67 1 83 0
-60 7 -68 0
54 -55 -24 0
-97 -32 -92 0
81 70 -47 0
-70 74 29 0
-25 37 -15 0
25 20 73 0
-69 -18 -55 0
56 -51 34 0
91 -21 36 0
59 28 -20 0
-14 97 83 0
-10 6 -18 0
73 -93 -29 0
82 -67 -39 0
76 35 -58 0
-10 -3 28 0
55 25 -29 0
-97 54 -38 0
-91 -50 30 0
65 47 -29 0
-25 -27 -1 0
71 -7 -41 0
-38 -26 91 0
-45 -62 56 0
25 63 -83 0
30 -68 -100 0
45 21 -89 0
-94 55 -15 0
-81 -41 10 0
-78 -47 -96 0
92 2 -40 0
60 -65 75 0
19 -3 35 0
-60 77 -51 0
-35 -4 -100 0
-2 -9 -7 0
69 -98 42 0
63 -58 -91 0
-23 62 -17 0
35 14 6 0
-24 -100 42 0
-30 -5 89 0
-32 -75 -6 0
-7 26 43 0
-86 85 51 0
-16 87 83 0
-9 16 -60 0
84 5 48 0
17 13 -62 0
-78 77 -18 0
-71 -66 57 0
89 58 70 0
55 -15 3 0
32 14 -79 0
-93 49 -99 0
-86 4 -65 0
-54 -39 -51 0
100 -43 23 0
-45 33 64 0
26 -27 59 0
-98 -34 49 0
27 -99 7 0
-30 -92 3 0
-11 75 58 0
64 -14 -25 0
22 66 -17 0
-33 -80 6 0
48 -70 12 0
82 -99 26 0
-19 -71 -20 0
81 -65 -29 0
-95 -23 -41 0
60 -100 46 0
87 -63 -52 0
18 -19 8 0
-62 88 29 0
59 -32 46 0
-80 13 -12 0
80 1 43 0
-12 65 22 0
-59 43 32 0
89 83 72 0
57 -71 -23 0
24 85 36 0
97 57 73 0
-83 -77 27 0
72 -75 -8 0
-25 -26 -31 0
-44 24 -98 0
-55 21 11 0
42 76 100 0
87 12 -62 0
87 -59 -28 0
62 52 -92 0
-18 8 10 0
13 37 -18 0
43 27 -89 0
-65 3 35 0
28 30 -87 0
75 -14 -66 0
-53 -63 46 0
-20 -47 -53 0
89 65 78 0
-94 -99 -22 0
95 5 100 0
25 8 87 0
69 -7 -30 0
45 27 46 0
-59 -99 -38 0
-88 61 26 0
76 41 75 0
89 38 -58 0
-8 -55 91 0
76 -96 58 0
76 -48 6 0
87 63 13 0
6 26 63 0
73 93 -12 0
-28 -47 -59 0
76 71 -96 0
-48 -40 -57 0
-1 17 -11 0
93 -98 81 0
80 76 -74 0
-93 58 99 0
-35 -84 24 0
-87 -96 49 0
72 98 -1 0
71 -76 46 0
54 68 79 0
-41 17 -61 0
35 -17 24 0
-46 -93 -74 0
75 95 -36 0
-85 -31 -16 0
22 -85 92 0
-49 -88 25 0
-2 14 96 0
79 18 30 0
-89 -36 53 0
72 -80 -59 0
-37 -51 -38 0
-74 75 72 0
46 -100 11 0
-40 68 -26 0
-2 96 -11 0
68 -57 36 0
-16 7 -13 0
-94 61 67 0
40 -55 -85 0
-36 49 -11 0
24 -2 71 0
64 44 -82 0
-78 52 24 0
-12 63 -39 0
-37 15 -20 0
41 -55 100 0
82 -55 -12 0
82 -15 -79 0
-88 16 79 0
17 44 84 0
-40 77 29 0
40 -87 63 0
81 44 23 0
-47 -58 -7 0
23 -25 -19 0
76 -48 63 0
81 -34 14 0
-93 -100 -50 0
-22 3 -60 0
19 62 -74 0
39 -42 -38 0
48 -52 -49 0
-4 -41 53 0
36 39 -10 0
56 -94 -40 0
-86 -88 19 0
28 -20 67 0
-75 83 -6 0
93 90 5 0
63 -24 -100 0
-79 53 -8 0
-71 -78 -32 0
-39 84 14 0
3 -82 2 0
12 -42 84 0
-79 -47 -3 0
30 -66 84 0
-81 74 49 0
-39 95 66 0
-53 -35 -29 0
51 -3 29 0
-99 7 87 0
-96 -54 72 0
-2 -5 -93 0
-4 61 -12 0
39 6 95 0
11 98 -13 0
68 57 -21 0
21 -65 -75 0
-97 -64 68 0
64 71 -65 0
-27 31 98 0
68 98 39 0
-79 -40 -83 0
-92 -27 -60 0
9 46 59 0
-19 52 -76 0
31 62 -25 0
-34 89 27 0
-39 59 73 0
4 67 55 0
-86 18 85 0
-59 -65 -52 0
-91 82 86 0
45 35 1 0
83 70 -42 0
51 -50 53 0
-41 84 -93 0
-13 -15 66 0
31 100 -34 0
13 58 100 0
-27 -25 -65 0
62 30 35 0
-20 -51 -73 0
-8 21 -11 0
-82 -41 -45 0
99 31 14 0
-10 49 41 0
-8 15 14 0
20 -35 14 0
77 33 82 0
19 67 87 0
44 -35 95 0
76 -11 -16 0
83 -76 9 0
-95 -33 46 0
1 -45 66 0
91 -67 8 0
60 -5 -10 0
34 -10 56 0
-13 -74 36 0
32 19 -65 0
42 -39 1 0
-25 87 -62 0
-91 58 100 0
94 95 -22 0
-9 -81 -77 0
90 14 1 0
91 85 40 0
-94 41 -37 0
23 -5 -53 0
-50 -76 -12 0
-51 -24 -90 0
7 -55 49 0
-35 91 40 0
-34 48 52 0
39 -10 89 0
-15 -72 -52 0
41 37 28 0
-63 44 3 0
-77 30 -88 0
72 60 77 0
-52 -18 -63 0
19 -12 4 0
17 6 -16 0
21 -80 -84 0
-64 -86 -66 0
1 -52 75 0
-53 -26 -85 0
-12 -41 88 0
-97 -33 -63 0
-17 77 42 0
63 75 64 0
52 -73 -85 0
-40 69 -96 0
45 -69 24 0
53 14 -37 0
-45 15 13 0
46 -61 69 0
23 -48 84 0
-6 7 -32 0
-90 96 -22 0
100 -78 53 0
-23 -81 19 0
-39 48 36 0
15 -68 -98 0
