c Coffinhead hard-core n=100 seed=34 ratio=4.0
p cnf 100 400
87 -31 -85 0
-34 90 -51 0
-75 17 -23 0
22 97 -43 0
81 35 -3 0
-71 -65 -41 0
23 -98 -64 0
54 -31 -12 0
72 -5 20 0
61 41 15 0
41 40 -1 0
32 -67 84 0
-33 18 56 0
-13 -79 100 0
-61 94 -5 0
63 -38 28 0
43 -13 99 0
22 89 -55 0
59 -97 85 0
-26 74 23 0
45 27 81 0
33 -50 72 0
-16 -57 15 0
100 77 90 0
-74 79 -87 0
-28 -40 89 0
37 -52 40 0
-6 64 8 0
6 61 -74 0
67 -8 7 0
-68 63 -69 0
89 -5 -25 0
-1 -35 -57 0
52 -99 6 0
16 -1 73 0
66 -56 84 0
16 -96 -50 0
92 28 -84 0
-58 -34 52 0
97 -73 94 0
56 18 -49 0
-39 -42 -35 0
5 -88 85 0
49 -56 57 0
41 -18 24 0
97 25 65 0
-1 32 -67 0
-68 -90 -74 0
-58 99 23 0
67 -76 60 0
-47 74 -24 0
-14 37 8 0
86 50 14 0
3 42 41 0
98 7 -99 0
-53 21 -17 0
-82 -92 40 0
-51 31 70 0
-89 -9 -79 0
-7 54 21 0
30 72 -88 0
98 -56 -74 0
8 -64 70 0
-17 2 -78 0
-48 -47 66 0
-7 76 -26 0
35 -60 77 0
-2 42 47 0
53 -98 55 0
34 -89 97 0
72 -18 34 0
83 14 79 0
-32 -99 19 0
50 21 -66 0
-15 43 -6 0
-91 14 -8 0
-99 -81 6 0
-21 -33 16 0
-29 -73 82 0
63 85 21 0
-21 88 71 0
9 -4 -75 0
10 -16 24 0
-6 -82 65 0
-10 -14 99 0
51 -59 81 0
63 -19 8 0
-59 89 -97 0
-20 -71 85 0
57 46 7 0
89 37 87 0
-66 43 47 0
-29 -58 89 0
-53 -8 -11 0
3 -77 81 0
-39 22 32 0
57 -31 -40 0
-76 97 78 0
-58 36 26 0
37 22 -21 0
88 1 44 0
-84 -55 -7 0
64 -71 59 0
90 -17 64 0
-90 32 16 0
40 -23 76 0
49 -20 -96 0
-94 -80 -91 0
51 -50 53 0
-17 85 55 0
57 -27 96 0
-36 -24 23 0
19 -55 44 0
28 11 83 0
36 -69 25 0
-25 -22 41 0
-27 47 58 0
40 -3 -49 0
-46 -3 -31 0
-37 -28 86 0
23 41 20 0
-61 9 -23 0
-32 16 80 0
64 33 16 0
49 81 46 0
-88 27 -13 0
79 -57 65 0
44 42 -35 0
-69 91 36 0
55 -19 -30 0
-9 35 -5 0
61 67 69 0
13 -7 97 0
92 39 53 0
-84 26 -98 0
-69 -40 -96 0
-12 7 80 0
-65 69 19 0
11 -2 -22 0
23 25 68 0
-6 -5 -28 0
17 41 -36 0
30 -15 -44 0
-12 10 74 0
-50 7 -51 0
70 53 73 0
44 -85 69 0
81 38 30 0
-28 -87 97 0
-64 89 -73 0
72 -62 -90 0
9 -50 -97 0
54 71 11 0
-58 63 59 0
71 -3 -27 0
42 -79 -67 0
18 -16 -55 0
-52 -37 -18 0
-75 84 66 0
-22 -7 82 0
10 -14 49 0
-60 -21 5 0
38 41 32 0
-57 55 -90 0
74 84 91 0
-77 -52 85 0
54 -89 -51 0
-65 -34 -27 0
-24 87 -95 0
-27 93 -41 0
-3 -93 16 0
-48 -74 63 0
-54 18 -78 0
73 -90 88 0
-35 -12 -54 0
88 -5 -36 0
17 4 56 0
27 -4 12 0
36 -49 -21 0
92 -75 71 0
64 -16 -33 0
43 68 55 0
24 -31 -47 0
45 -54 4 0
-88 -1 -76 0
12 46 53 0
29 -28 -7 0
-70 61 -77 0
-39 79 -96 0
62 -64 23 0
18 83 100 0
-55 30 38 0
-90 94 -23 0
59 24 -19 0
29 -91 -34 0
-56 -22 -63 0
-68 -95 88 0
-76 -42 25 0
-30 50 59 0
62 -86 -88 0
-52 6 -31 0
-85 -32 -23 0
80 -34 78 0
-87 -27 61 0
-93 17 80 0
-88 68 -94 0
88 -10 68 0
53 98 -61 0
-13 -31 -18 0
-2 -49 34 0
-40 10 36 0
-34 3 64 0
-53 -83 16 0
64 95 -14 0
-82 76 72 0
97 -75 50 0
82 -68 -1 0
-78 7 -39 0
-89 -85 30 0
31 30 -5 0
-72 19 77 0
1 31 48 0
8 -97 -24 0
11 89 25 0
-31 -28 -94 0
56 -96 -32 0
-73 11 28 0
-51 27 -52 0
67 69 16 0
1 24 -9 0
67 69 -31 0
41 63 57 0
33 -49 51 0
-61 38 -51 0
-68 13 -20 0
4 9 56 0
-25 -57 -77 0
-32 -31 -5 0
-82 72 87 0
-8 75 56 0
-62 69 -87 0
46 -79 -90 0
-39 -31 -93 0
48 9 47 0
77 64 -17 0
53 -6 89 0
16 26 -83 0
-83 -71 -6 0
40 68 -70 0
42 -60 90 0
84 80 49 0
-30 82 -20 0
-38 65 -73 0
69 88 -86 0
26 -32 -48 0
-9 65 -33 0
14 24 -65 0
-67 -93 -86 0
-80 10 -28 0
-59 82 88 0
53 -95 -52 0
47 11 -61 0
-27 41 -85 0
98 -10 72 0
50 -29 -52 0
36 -34 44 0
65 -75 -54 0
79 96 20 0
-91 -42 -46 0
1 77 56 0
-94 -9 -89 0
86 -100 18 0
92 6 72 0
51 42 16 0
-23 -81 -62 0
10 -35 -58 0
-60 70 -50 0
28 -57 -97 0
2 97 -6 0
60 -74 97 0
8 -80 89 0
-50 55 28 0
-90 77 43 0
69 31 38 0
98 19 -57 0
-77 55 28 0
-46 65 38 0
16 9 15 0
89 -12 -86 0
-86 -85 63 0
65 -87 -15 0
-11 -32 -80 0
-15 -21 97 0
73 -51 -76 0
80 -3 -54 0
6 12 26 0
24 -92 -13 0
45 -30 27 0
17 28 -67 0
-94 -18 45 0
93 -18 -85 0
-93 -39 -100 0
25 49 -32 0
-9 -30 44 0
60 -14 18 0
-24 50 -94 0
-77 -17 -25 0
86 -26 -84 0
6 -36 10 0
91 -37 77 0
49 33 26 0
32 -15 62 0
-94 -91 -31 0
-34 -22 54 0
15 49 13 0
-83 -20 -17 0
-80 -37 88 0
38 73 30 0
-58 89 -12 0
37 -62 94 0
-63 -66 -92 0
-94 99 -93 0
-54 1 -87 0
52 68 -64 0
70 49 -74 0
17 -33 -92 0
-46 41 -99 0
-28 -69 -15 0
45 51 -59 0
-42 61 -18 0
-43 -47 -94 0
-26 -15 -67 0
-5 14 -49 0
-66 -94 -39 0
96 16 -2 0
-4 -19 -78 0
-81 -3 14 0
-67 46 73 0
55 78 61 0
86 4 -55 0
-68 32 -80 0
-90 -43 -63 0
54 -1 96 0
6 -20 -94 0
93 24 5 0
-86 -8 83 0
89 77 -64 0
13 -79 91 0
33 42 53 0
-75 -16 48 0
16 42 23 0
-2 -25 97 0
-7 11 -64 0
-21 -31 74 0
-90 24 -78 0
-16 91 50 0
10 -12 -84 0
-28 2 35 0
-82 -93 -16 0
-78 -81 92 0
33 63 -65 0
-17 89 60 0
-92 88 -79 0
58 -10 87 0
44 97 19 0
40 -28 37 0
-10 5 -90 0
-34 78 7 0
-25 -67 -19 0
8 -66 -57 0
-52 -24 -71 0
-44 63 -31 0
-96 47 -84 0
85 -59 -10 0
18 -1 -93 0
-99 2 -23 0
63 -82 -18 0
56 -94 23 0
9 97 -62 0
55 -53 -93 0
-49 87 -14 0
97 -68 -92 0
-4 -21 47 0
-58 28 2 0
19 3 40 0
15 -91 -21 0
-4 77 -18 0
-4 9 -42 0
82 75 -74 0
-7 -35 -75 0
37 56 30 0
-61 -28 -76 0
-63 -15 -33 0
-63 -71 33 0
-16 -10 -61 0
-13 -29 -90 0
57 -30 -49 0
8 -53 -30 0
-2 -89 80 0
70 -74 -34 0
