c Coffinhead hard-core n=100 seed=38 ratio=4.0
p cnf 100 400
31 -67 30 0
67 26 3 0
85 -69 -15 0
-63 -41 68 0
-4 -85 -89 0
12 37 61 0
67 -11 69 0
-13 4 5 0
-32 19 -27 0
-34 99 -67 0
-9 63 12 0
-21 30 -46 0
10 -46 27 0
31 19 -17 0
6 60 -32 0
48 80 88 0
-100 -26 -63 0
-60 65 41 0
75 -93 23 0
77 42 -75 0
37 -84 34 0
-96 20 93 0
-82 67 21 0
16 14 93 0
19 -16 -64 0
-33 47 96 0
3 21 -40 0
54 48 77 0
-25 65 45 0
7 -62 71 0
-13 -41 -59 0
91 95 72 0
77 29 96 0
-93 53 -24 0
25 36 -41 0
-86 51 -28 0
-81 -77 67 0
-94 43 47 0
-80 -67 -95 0
33 81 5 0
95 -46 -100 0
-28 -20 87 0
-61 59 -83 0
90 -45 38 0
-5 -21 95 0
-85 -89 -27 0
-43 37 17 0
93 12 21 0
-29 -17 -24 0
39 -43 -52 0
-85 38 -13 0
-92 94 21 0
-78 -2 36 0
12 -61 88 0
55 -14 61 0
7 22 -87 0
40 17 -96 0
-13 -10 -75 0
-44 29 -45 0
-16 -85 20 0
82 -32 45 0
-1 -3 -70 0
29 -83 96 0
26 -71 87 0
-44 -38 -5 0
-19 -39 -2 0
-55 -72 94 0
6 -43 66 0
5 57 -54 0
-4 34 -28 0
-75 -33 -34 0
67 9 -59 0
58 -87 -6 0
-73 25 65 0
68 -7 -63 0
-66 80 88 0
-88 -60 -44 0
-42 -57 -54 0
67 3 -10 0
-61 84 70 0
-87 -69 -85 0
19 34 -20 0
41 80 -67 0
39 3 14 0
-26 -67 24 0
91 70 -75 0
-56 -95 25 0
-2 53 -20 0
6 80 42 0
45 8 16 0
60 10 -76 0
-60 82 -37 0
-32 -81 -30 0
45 -56 64 0
-83 3 29 0
53 -69 -50 0
-86 52 49 0
97 57 -79 0
-90 50 52 0
6 -61 -48 0
-28 -100 35 0
68 -59 -96 0
-66 15 7 0
-37 96 50 0
84 39 82 0
-10 -60 -71 0
93 61 69 0
-59 -28 -19 0
-11 -66 -30 0
65 83 24 0
-96 11 -60 0
5 -95 -42 0
-100 8 -43 0
-83 76 4 0
29 47 -14 0
15 -10 -76 0
60 -4 -9 0
-64 -94 32 0
-28 -4 -65 0
-40 38 -62 0
84 -24 -9 0
92 74 28 0
-40 17 -60 0
-29 -44 -56 0
12 -39 -80 0
-47 -17 -4 0
93 -8 6 0
-12 -65 -81 0
75 -60 -66 0
-12 -33 21 0
91 -79 -64 0
-7 29 45 0
-48 68 6 0
73 49 33 0
11 93 86 0
-17 26 -13 0
-24 -42 -85 0
-52 -76 56 0
-2 10 98 0
-69 10 -99 0
-83 94 8 0
9 6 8 0
-25 70 33 0
100 89 -97 0
-47 -88 -2 0
-86 13 81 0
-59 41 -69 0
15 -47 -43 0
92 8 90 0
-45 36 -13 0
38 61 52 0
-64 -73 -48 0
72 69 16 0
34 98 57 0
-14 22 57 0
-83 35 55 0
16 -30 40 0
37 -6 70 0
-39 72 26 0
-70 6 61 0
72 -79 -18 0
-24 -8 75 0
29 -45 -34 0
-76 47 89 0
-70 -8 55 0
9 8 17 0
55 76 -40 0
-55 -80 66 0
59 98 -11 0
75 25 -4 0
61 94 91 0
41 45 39 0
60 65 85 0
87 -50 -60 0
-66 -73 -6 0
-56 -40 -51 0
26 -97 -22 0
86 60 -63 0
46 -36 61 0
26 -17 -96 0
-21 3 -42 0
-58 66 -16 0
-45 -38 -29 0
5 89 99 0
-73 -35 -58 0
-2 8 13 0
39 -41 -79 0
-83 77 26 0
48 -26 1 0
-73 -80 20 0
-1 -88 -42 0
66 93 26 0
47 -13 98 0
18 4 34 0
11 -48 -24 0
-87 47 -51 0
37 39 -43 0
-40 22 -46 0
46 -14 94 0
-88 -99 29 0
-21 68 -15 0
24 -64 -85 0
78 28 84 0
53 32 -70 0
34 97 -67 0
98 -56 77 0
-96 -75 60 0
96 -48 5 0
84 73 -9 0
-91 -41 66 0
99 17 65 0
-57 48 -86 0
55 16 46 0
70 38 -54 0
27 4 5 0
-33 81 -21 0
-67 38 -63 0
-1 2 -29 0
-60 -19 2 0
14 75 -13 0
-83 64 69 0
20 7 -45 0
-77 -47 30 0
-8 13 98 0
-1 -80 68 0
50 45 -68 0
49 96 65 0
58 -14 72 0
-34 -9 18 0
82 -48 2 0
-11 82 73 0
72 -63 74 0
-99 -67 51 0
70 40 4 0
28 -100 -65 0
88 30 91 0
-18 -53 96 0
58 -24 30 0
75 -33 71 0
10 -46 84 0
99 78 49 0
-7 4 -45 0
42 -25 99 0
-97 -13 -27 0
18 -6 30 0
-29 -20 -27 0
24 75 52 0
-88 39 24 0
-49 -59 -31 0
-33 -65 -38 0
45 -42 27 0
-77 -1 54 0
-74 -72 90 0
67 20 -15 0
-80 -78 89 0
-5 -79 68 0
90 74 39 0
-10 26 25 0
-50 23 -79 0
92 99 -42 0
-13 -6 44 0
69 -99 -92 0
-10 15 73 0
-82 -61 41 0
76 50 -88 0
-40 -28 65 0
28 73 -65 0
35 -69 -44 0
12 52 -63 0
77 61 34 0
-72 77 49 0
73 54 61 0
-58 36 93 0
95 63 25 0
72 15 -23 0
-62 -100 12 0
24 -50 -90 0
19 99 -64 0
-51 -69 -10 0
55 4 -51 0
13 55 80 0
-30 -78 -23 0
2 83 97 0
52 89 -73 0
8 32 -17 0
-72 -70 19 0
-94 8 60 0
36 -44 26 0
18 -75 -52 0
17 -51 66 0
100 -31 93 0
100 -88 -79 0
-15 91 -43 0
-91 -97 19 0
61 88 59 0
41 48 81 0
-6 99 -17 0
-33 4 49 0
-32 44 60 0
3 -31 -9 0
-18 98 -31 0
-34 -7 42 0
40 56 -67 0
15 -66 77 0
28 46 60 0
-1 44 20 0
74 -11 48 0
96 -6 -79 0
6 96 29 0
19 -14 77 0
41 -28 -48 0
45 -83 -87 0
77 43 -27 0
6 -76 -63 0
86 75 -73 0
-68 -69 95 0
61 45 -69 0
-64 -39 -11 0
-69 1 63 0
-65 -90 94 0
-10 21 45 0
-49 -35 55 0
-17 -65 -50 0
-66 8 -24 0
88 -90 -19 0
-41 -47 25 0
79 -47 -99 0
-73 -30 89 0
74 -80 79 0
59 40 -41 0
58 -4 89 0
-15 54 -85 0
19 -5 -8 0
6 49 -37 0
-43 -37 25 0
-98 40 60 0
-78 -57 -10 0
47 -53 16 0
76 -83 -32 0
-94 -86 -98 0
-65 -98 -17 0
-72 -73 49 0
96 47 -14 0
12 -15 58 0
42 -24 -47 0
-60 -46 48 0
99 83 -55 0
-36 -79 80 0
-13 77 23 0
-7 -13 -32 0
-80 30 -88 0
16 33 -44 0
13 -45 51 0
98 56 78 0
-3 -40 -79 0
-41 74 19 0
57 -24 12 0
-41 -27 24 0
-35 47 56 0
-6 -49 43 0
-92 43 -4 0
-44 -17 -67 0
-2 -51 54 0
-59 16 -18 0
53 36 -7 0
-49 -50 -78 0
-97 74 4 0
-88 56 -15 0
77 10 -85 0
-18 -76 -3 0
73 -2 42 0
43 -63 49 0
-66 -41 -32 0
61 -69 -21 0
37 65 31 0
86 -73 35 0
-96 -33 -14 0
-3 -56 5 0
-19 4 49 0
-47 -7 -78 0
16 60 -34 0
61 -64 22 0
45 91 79 0
-40 1 -21 0
59 77 44 0
59 -19 45 0
80 31 -92 0
30 50 89 0
45 -20 10 0
-12 -64 91 0
-60 -2 -15 0
-34 -42 14 0
64 -35 32 0
-1 -87 -9 0
29 81 -36 0
47 -4 -19 0
55 70 98 0
-41 -97 68 0
-47 62 31 0
-55 43 -73 0
