c Coffinhead hard-core n=100 seed=26 ratio=4.0
p cnf 100 400
87 11 66 0
-85 68 -57 0
-9 -71 16 0
34 99 63 0
86 -3 -47 0
89 100 57 0
66 63 -71 0
13 -79 8 0
-20 -65 44 0
-72 77 79 0
55 -56 92 0
65 48 -31 0
81 -97 13 0
-78 -79 65 0
86 5 -49 0
63 -43 55 0
-9 80 -73 0
-70 34 30 0
-51 -33 66 0
-79 42 2 0
-57 -38 67 0
-39 13 -66 0
-51 4 -71 0
44 -28 5 0
-85 48 -47 0
23 -19 2 0
-2 74 84 0
-91 -60 27 0
97 30 59 0
-99 -9 -73 0
-98 -62 -40 0
-63 61 70 0
36 -3 39 0
16 -86 31 0
-60 -59 31 0
-81 95 96 0
62 24 -36 0
-46 60 -51 0
39 60 -23 0
48 -52 97 0
28 76 94 0
75 -47 -59 0
76 -33 -91 0
-32 5 83 0
33 -92 51 0
-60 94 -46 0
-43 -99 15 0
77 -42 16 0
51 -89 22 0
-52 37 -58 0
-23 -1 -68 0
78 15 25 0
99 -38 92 0
20 77 62 0
70 -92 -83 0
-82 -39 -11 0
27 -43 4 0
-79 -87 58 0
95 -14 2 0
48 11 -90 0
38 57 -20 0
48 -91 -64 0
-68 -17 58 0
-3 29 -52 0
-68 -83 -88 0
73 20 -23 0
-71 -59 45 0
-63 30 62 0
1 11 12 0
46 5 -63 0
97 35 10 0
-16 -100 -21 0
-83 -30 -54 0
8 -89 46 0
-74 28 -25 0
48 -12 -39 0
-26 -53 -70 0
23 -73 -77 0
99 -60 -3 0
95 10 -54 0
21 -3 -25 0
53 -37 -69 0
-49 64 -18 0
98 -77 -76 0
49 -90 -4 0
76 -11 -48 0
-40 -7 -24 0
17 -47 -42 0
19 51 50 0
-81 -18 -90 0
59 49 -70 0
-92 -60 77 0
-21 -1 44 0
-66 -37 -8 0
-4 56 -97 0
3 -94 -5 0
46 -65 -72 0
100 -54 49 0
-66 -44 48 0
-39 -97 -65 0
100 -73 69 0
7 61 5 0
80 -25 -96 0
-48 39 -51 0
-78 -52 50 0
-5 -1 -36 0
76 -61 36 0
-30 -80 -77 0
25 -69 -7 0
-83 -20 95 0
70 54 -56 0
40 -22 79 0
59 79 -16 0
80 7 -74 0
-84 27 25 0
50 -61 -88 0
-42 45 -89 0
27 99 70 0
-81 -41 36 0
-25 -91 72 0
46 -7 -51 0
-66 -71 -10 0
-61 19 26 0
44 -47 26 0
-45 -59 43 0
59 35 -47 0
34 -48 57 0
23 46 57 0
48 -91 -22 0
93 79 -76 0
5 33 48 0
-90 25 81 0
64 100 75 0
-96 -69 -66 0
-25 -24 42 0
48 -20 59 0
45 -8 92 0
97 -61 15 0
-81 -18 15 0
-43 15 32 0
-84 -48 -13 0
-9 -43 5 0
-84 71 -19 0
10 82 55 0
-51 -75 -96 0
-33 -17 52 0
58 -35 55 0
8 11 -14 0
-3 -48 28 0
-14 29 18 0
81 -22 -58 0
43 44 -31 0
-74 69 99 0
90 75 -70 0
88 -45 57 0
57 -72 -14 0
87 -50 52 0
67 74 -1 0
-8 4 -11 0
86 96 68 0
39 -76 87 0
38 79 -47 0
30 87 61 0
48 -52 -59 0
8 -61 -32 0
66 22 -94 0
-33 31 28 0
-100 24 93 0
-99 58 27 0
91 20 -51 0
91 20 29 0
-53 42 -79 0
53 -38 40 0
-77 -19 -58 0
35 18 -36 0
28 -24 -49 0
-34 -31 47 0
-60 77 84 0
53 -1 -4 0
-43 -49 -29 0
-80 -25 7 0
9 -69 -72 0
-93 43 22 0
5 -95 79 0
-54 47 -35 0
-7 -57 74 0
8 -41 53 0
-4 -17 -59 0
-36 -70 76 0
44 -14 -28 0
-40 -58 61 0
-63 59 23 0
-80 24 97 0
-75 61 -94 0
36 -12 20 0
-48 -21 82 0
20 91 66 0
-1 -93 6 0
-51 55 54 0
-3 51 37 0
50 12 19 0
83 24 87 0
57 -58 -72 0
-4 -13 37 0
37 -39 -18 0
-77 42 -98 0
-89 52 73 0
-68 -59 1 0
-2 -9 26 0
-40 16 -57 0
-57 -45 -68 0
-79 56 83 0
85 95 1 0
96 -87 15 0
40 -5 29 0
95 -4 -28 0
23 81 -37 0
63 87 49 0
-81 -62 -50 0
-9 -68 -8 0
-96 29 7 0
45 43 49 0
63 -86 18 0
-55 56 59 0
94 -100 34 0
45 30 79 0
63 18 -10 0
-7 -87 -39 0
-91 -40 -1 0
-47 -1 -39 0
-88 69 84 0
64 -15 -74 0
-29 80 -81 0
-15 96 24 0
3 7 -5 0
50 -88 15 0
100 -23 -65 0
-83 16 -85 0
6 -72 5 0
48 62 -86 0
-47 70 -25 0
-15 -49 42 0
-64 96 37 0
-50 -17 1 0
94 28 85 0
53 90 -51 0
-1 10 63 0
-5 85 -14 0
1 14 -86 0
78 -79 10 0
-91 58 10 0
-96 64 -97 0
48 -95 9 0
-97 62 -60 0
-33 -48 28 0
-28 -26 60 0
62 4 19 0
-44 56 79 0
58 30 -42 0
68 34 -1 0
-40 99 58 0
81 -98 -16 0
-81 -37 80 0
-67 57 -39 0
10 34 -69 0
53 86 -97 0
-47 42 82 0
-62 10 6 0
-60 -15 -86 0
-38 -99 77 0
-52 24 74 0
-94 -11 6 0
-42 -31 100 0
-28 68 40 0
87 47 -37 0
20 81 -80 0
39 58 4 0
70 -33 42 0
100 29 -84 0
-88 -89 -79 0
46 67 77 0
45 -49 -63 0
-95 -53 -46 0
-85 82 -9 0
-19 -62 -90 0
30 79 86 0
53 41 26 0
-38 92 20 0
-85 -25 -17 0
49 15 -77 0
-86 -44 -45 0
-57 19 83 0
7 -73 8 0
27 -64 79 0
87 -38 10 0
-18 17 -61 0
-76 -74 64 0
-43 55 -15 0
-12 31 47 0
-44 8 93 0
-63 -61 23 0
89 7 -59 0
70 94 22 0
14 96 -12 0
35 -89 -28 0
4 -83 82 0
-93 67 74 0
-14 -74 71 0
5 81 -22 0
-76 -2 74 0
-76 -39 -88 0
-73 97 18 0
-97 -22 -34 0
-11 -67 55 0
90 66 23 0
-36 4 -99 0
90 -64 -16 0
7 71 -29 0
-2 48 -6 0
1 79 -90 0
61 88 -31 0
80 -6 -15 0
-42 78 52 0
73 74 -20 0
-40 -100 36 0
50 99 58 0
-54 -26 -100 0
-28 77 63 0
-79 -65 78 0
7 27 -63 0
81 58 39 0
-30 27 75 0
-12 76 71 0
-24 -29 97 0
13 -98 73 0
-82 91 73 0
70 1 -83 0
-52 -16 11 0
-90 48 -86 0
-94 -31 37 0
73 -96 20 0
16 96 8 0
-93 -74 41 0
-48 -83 63 0
-26 -73 -44 0
-54 -89 9 0
41 92 -38 0
69 86 -13 0
-33 -52 32 0
-21 82 34 0
97 -50 -42 0
-38 -8 25 0
-12 -35 -55 0
8 3 91 0
-57 -20 100 0
-58 -38 100 0
-31 -6 83 0
71 -4 68 0
57 -35 78 0
97 92 10 0
-21 59 22 0
89 -70 24 0
85 33 92 0
51 54 -17 0
-76 30 50 0
-98 41 19 0
-37 45 -53 0
-5 4 -6 0
72 -7 79 0
-62 -78 11 0
74 17 -90 0
100 24 6 0
-82 18 -54 0
77 9 -40 0
-67 -83 -53 0
-98 -34 51 0
88 41 18 0
98 73 -57 0
-71 -85 5 0
24 -20 -14 0
96 63 8 0
46 97 -89 0
-6 -77 64 0
46 -30 24 0
6 23 100 0
-6 -19 -34 0
-69 -67 18 0
20 -55 65 0
-50 -67 -74 0
58 -13 91 0
-18 46 -14 0
-97 25 52 0
-39 89 34 0
-66 -29 -62 0
29 -42 13 0
-22 -36 84 0
-80 -8 91 0
50 -63 -48 0
-71 73 2 0
62 15 56 0
