c Coffinhead hard-core n=100 seed=12 ratio=4.0
p cnf 100 400
-33 -45 -52 0
78 -74 26 0
-76 74 79 0
-82 -52 16 0
77 -98 -27 0
-15 7 22 0
44 78 29 0
-100 97 40 0
47 58 1 0
-74 31 43 0
-47 -30 44 0
23 48 -38 0
-49 -43 -87 0
-88 2 90 0
-85 63 -83 0
-51 86 8 0
-81 -13 46 0
31 36 35 0
-77 48 70 0
33 67 -43 0
-80 -48 69 0
-73 -72 -97 0
-34 36 55 0
-15 45 57 0
33 -32 22 0
36 49 -13 0
-95 -84 74 0
25 -41 -55 0
58 -12 -67 0
-87 98 49 0
61 -99 -88 0
-57 90 -88 0
58 34 84 0
39 -36 98 0
-15 91 60 0
93 -54 -14 0
10 60 87 0
36 30 -10 0
6 99 -21 0
77 -47 -82 0
41 -74 -87 0
44 68 33 0
-53 -73 -34 0
51 79 22 0
3 70 -88 0
63 -91 41 0
37 -9 -46 0
9 79 17 0
57 56 98 0
-73 -91 87 0
91 75 55 0
-53 -99 -38 0
-48 72 -36 0
-23 -25 88 0
10 20 -12 0
-55 -48 73 0
22 -55 93 0
48 -28 -87 0
-86 48 10 0
-19 -6 98 0
13 20 -56 0
35 -86 -44 0
64 74 -58 0
42 84 -66 0
-80 -19 -75 0
-2 -82 28 0
-96 52 -49 0
85 28 26 0
-84 49 83 0
70 -87 19 0
-58 27 1 0
-32 63 -5 0
-30 -25 8 0
-91 85 -17 0
39 -14 67 0
-75 54 74 0
-35 81 -24 0
11 48 98 0
9 -48 -46 0
-42 46 31 0
100 90 1 0
68 58 -11 0
66 89 -1 0
-85 -77 -30 0
31 72 -51 0
-4 68 100 0
100 5 -21 0
30 -58 -80 0
-44 -6 99 0
-43 -64 -90 0
-75 91 -51 0
-97 -3 81 0
46 -10 -93 0
49 67 -7 0
37 48 -94 0
31 48 83 0
-24 -43 49 0
30 19 61 0
14 15 99 0
-54 19 59 0
-4 -13 -100 0
88 82 -95 0
60 29 -71 0
-41 91 -27 0
44 -21 -81 0
-80 -69 -100 0
6 -93 -1 0
-35 -85 64 0
86 45 22 0
46 -98 15 0
-4 55 -86 0
-41 -87 31 0
100 -13 -58 0
42 -25 68 0
-32 46 -77 0
80 -17 -64 0
-90 -11 7 0
37 17 4 0
50 -37 -65 0
25 -40 34 0
-40 -38 -94 0
34 -28 -77 0
-60 78 -61 0
61 59 25 0
15 58 1 0
-45 -85 74 0
66 -58 -26 0
2 24 -76 0
-11 -26 21 0
-86 -13 -47 0
97 -19 13 0
80 -7 -9 0
-11 -98 64 0
-59 5 22 0
-50 19 3 0
78 93 89 0
-68 49 48 0
26 -57 91 0
85 86 -48 0
22 48 84 0
22 75 71 0
88 72 37 0
-64 -87 -10 0
96 6 -85 0
84 60 7 0
8 -75 7 0
40 39 15 0
68 -48 82 0
-28 21 -69 0
72 40 -2 0
77 -82 32 0
-88 -25 -87 0
84 -38 93 0
37 -54 -67 0
-17 -44 -98 0
24 100 -61 0
91 -84 95 0
-43 -63 13 0
28 41 51 0
89 -55 31 0
96 40 -71 0
43 78 -47 0
4 -16 -33 0
-83 -42 -48 0
65 8 77 0
-47 35 31 0
-100 -72 34 0
-77 29 -68 0
5 12 -84 0
-47 -60 -19 0
52 -69 18 0
-26 -37 -55 0
-56 -72 100 0
61 76 71 0
-94 -19 -62 0
-93 14 76 0
-74 34 100 0
48 53 -90 0
-48 -74 81 0
-23 -26 93 0
-40 49 47 0
6 -15 -16 0
-80 11 -12 0
40 -88 -25 0
-42 -70 64 0
-35 -68 43 0
-51 -46 5 0
15 36 -98 0
68 -35 -90 0
-85 56 -37 0
46 3 -76 0
32 -36 -100 0
83 32 -72 0
23 -83 -70 0
32 97 89 0
9 52 -71 0
89 73 -65 0
49 78 -22 0
8 34 71 0
13 -17 100 0
-95 -5 -41 0
-98 -74 92 0
77 86 -76 0
61 -28 1 0
58 -24 53 0
-29 1 15 0
78 25 -94 0
71 56 -29 0
-89 43 1 0
-58 9 94 0
-93 80 75 0
27 -72 -92 0
28 62 -8 0
-59 -54 72 0
80 -52 -22 0
-85 -28 -14 0
-43 -63 -99 0
-12 -73 -69 0
36 -58 31 0
-4 -52 76 0
88 -7 -55 0
17 79 -97 0
7 34 -21 0
18 61 38 0
65 -99 79 0
8 40 92 0
-98 14 80 0
74 -51 66 0
-82 11 -54 0
2 -27 33 0
44 29 -12 0
12 -5 72 0
84 -12 17 0
63 85 -59 0
12 -78 -46 0
-40 62 27 0
-8 -29 77 0
80 -53 66 0
-99 -16 -54 0
-7 4 80 0
25 -82 -14 0
-99 87 16 0
-48 -3 7 0
1 -59 34 0
-94 79 68 0
-63 72 19 0
44 -61 36 0
6 91 5 0
1 53 -78 0
-59 -100 28 0
14 -28 -20 0
80 12 -17 0
90 13 87 0
-25 -90 -93 0
48 -88 35 0
34 -7 -60 0
-100 -71 -95 0
-2 -81 -18 0
91 -14 21 0
39 22 28 0
14 81 63 0
-19 -29 72 0
-81 -78 -31 0
-100 -97 -22 0
-89 6 64 0
-19 -6 -22 0
51 -89 70 0
-62 42 7 0
-40 5 53 0
-89 41 -10 0
-21 20 33 0
18 35 75 0
56 -5 36 0
-39 -20 31 0
-4 41 -30 0
64 93 24 0
3 67 -44 0
-95 99 -83 0
-51 -60 -96 0
55 -24 -89 0
-6 -57 -86 0
49 27 26 0
-42 87 -84 0
-61 -69 50 0
69 65 -75 0
91 -75 -21 0
-64 -18 -61 0
13 -70 44 0
-25 40 16 0
69 68 23 0
21 -92 -69 0
91 -52 64 0
-43 -91 14 0
-24 12 -16 0
-96 20 21 0
38 -65 -30 0
84 -94 86 0
-40 86 56 0
33 -22 -45 0
-24 -10 5 0
-92 34 -69 0
-57 88 -89 0
77 95 -16 0
30 -90 -33 0
-38 6 -15 0
-18 -76 -67 0
-34 75 -82 0
-9 13 -36 0
-67 37 -76 0
34 -69 86 0
8 66 45 0
35 -55 -47 0
-8 12 10 0
34 6 -5 0
45 15 62 0
-31 -67 12 0
82 90 83 0
98 -34 -85 0
15 -94 -53 0
-58 26 40 0
10 -85 -62 0
77 -75 45 0
-45 55 -4 0
-28 -35 76 0
40 -62 65 0
-72 63 -9 0
-75 -35 -21 0
27 -91 5 0
35 -45 19 0
92 59 29 0
43 49 63 0
-38 97 -96 0
82 33 13 0
-49 -47 -64 0
57 -84 -87 0
-100 -38 31 0
-99 61 -46 0
-90 -88 -35 0
14 -66 8 0
-15 87 67 0
78 -67 43 0
-4 -11 54 0
-57 16 55 0
-63 -17 -5 0
70 21 -32 0
-50 -58 -45 0
39 12 -9 0
-87 25 -55 0
-87 -93 -4 0
-52 32 3 0
63 -98 100 0
50 21 -47 0
6 -71 -18 0
-79 47 -15 0
69 -14 97 0
-82 59 -69 0
64 82 -48 0
-29 -11 -43 0
26 12 2 0
-12 -4 35 0
10 93 39 0
-84 -89 -98 0
47 -66 -2 0
-99 -37 -12 0
92 -83 -90 0
31 -68 -10 0
98 -95 50 0
51 -97 25 0
-50 59 -79 0
99 -47 -80 0
76 -99 95 0
65 51 29 0
34 89 52 0
-42 1 -78 0
65 72 -83 0
-50 -76 -96 0
16 -39 -72 0
-26 -11 64 0
-82 -97 62 0
95 89 97 0
-2 -68 63 0
12 -95 -82 0
93 -52 14 0
-99 86 -59 0
90 94 -34 0
-69 48 -83 0
-45 -84 -75 0
73 -10 -54 0
-56 16 78 0
-94 -22 -38 0
80 69 -40 0
-41 -17 18 0
46 -74 82 0
37 -56 -54 0
-1 -33 -53 0
52 -79 27 0
62 100 -49 0
86 -83 -39 0
-90 -56 93 0
45 -61 94 0
