c Coffinhead hard-core n=100 seed=18 ratio=4.0
p cnf 100 400
99 23 -92 0
-91 15 -66 0
10 6 -7 0
-97 37 34 0
-45 -57 -50 0
-100 50 89 0
41 7 -64 0
38 63 -53 0
80 -1 -62 0
-75 96 -4 0
-66 9 19 0
52 96 -66 0
-28 93 2 0
70 72 89 0
88 23 -3 0
57 85 -66 0
-75 61 64 0
16 7 -84 0
-80 -90 21 0
66 -61 27 0
83 -87 -14 0
49 36 67 0
-34 -88 75 0
16 59 25 0
32 56 86 0
73 -91 93 0
10 88 31 0
-55 76 95 0
-34 4 53 0
-49 50 94 0
-1 59 79 0
38 49 -69 0
-96 62 56 0
41 2 -14 0
-59 71 -97 0
70 -86 44 0
20 -25 7 0
94 -17 36 0
-100 -25 97 0
66 63 -77 0
-25 -26 40 0
37 -55 -25 0
48 79 -32 0
-4 -39 -76 0
-13 -55 -45 0
61 20 4 0
17 -33 81 0
-58 -79 -1 0
-86 84 -74 0
-24 35 40 0
-79 -1 81 0
28 1 67 0
85 83 20 0
-77 -42 -76 0
-65 -80 87 0
-91 51 -61 0
-32 -60 20 0
-89 35 90 0
36 -77 -61 0
-38 -31 22 0
7 -75 -99 0
93 42 81 0
-89 -23 -33 0
10 -87 -42 0
86 82 31 0
22 100 56 0
-92 -99 70 0
32 -44 -67 0
-50 -20 -39 0
30 61 -20 0
63 96 42 0
-92 78 95 0
-48 -47 54 0
-58 24 -38 0
57 -96 -8 0
36 27 49 0
-7 42 70 0
-96 -59 66 0
-42 46 -96 0
-16 95 76 0
61 28 83 0
6 51 75 0
-71 -59 -13 0
78 -90 -28 0
-55 -81 -29 0
31 -5 -99 0
-18 -67 24 0
-4 -47 -2 0
-83 99 -89 0
20 -91 -35 0
49 -24 16 0
-70 47 2 0
-80 -49 37 0
90 93 -57 0
-15 -95 -86 0
64 5 -43 0
40 -9 -11 0
-20 -18 97 0
76 68 67 0
37 -67 48 0
-21 -86 -62 0
32 -41 27 0
28 44 -54 0
48 71 -67 0
58 61 1 0
84 52 91 0
33 -86 10 0
-92 -60 -58 0
-96 77 -72 0
-27 96 -64 0
98 19 59 0
-88 10 -23 0
-59 99 -71 0
-33 -27 19 0
84 61 -49 0
29 -20 -8 0
86 -59 81 0
48 -94 -55 0
-50 -51 -62 0
-60 -12 -2 0
-33 -95 -71 0
73 -35 -34 0
-95 54 97 0
-84 -39 -21 0
70 21 -18 0
31 68 77 0
73 41 -63 0
75 21 55 0
69 -31 -38 0
-33 -75 -72 0
14 53 34 0
64 4 84 0
30 -22 -74 0
46 96 66 0
-89 77 49 0
-62 26 -63 0
-46 -80 -60 0
-81 -36 -91 0
93 -28 59 0
-52 33 -79 0
17 -78 6 0
70 -4 23 0
14 13 -43 0
-34 -68 -27 0
7 89 -84 0
-37 -52 49 0
-46 45 18 0
-86 25 93 0
-4 -60 56 0
-92 69 -21 0
46 -80 -51 0
-30 -96 -33 0
-82 -49 -88 0
21 -53 -36 0
-88 -50 45 0
-48 21 34 0
-31 23 78 0
79 -16 -14 0
-43 -38 -41 0
27 -71 -70 0
-47 68 -34 0
-39 80 -58 0
75 35 -51 0
33 58 95 0
-35 -27 31 0
84 29 60 0
64 -22 12 0
-61 92 67 0
-81 87 38 0
-44 -16 -57 0
-49 24 64 0
-45 71 -73 0
41 3 27 0
72 -95 68 0
-73 -33 3 0
12 -22 -36 0
-25 56 77 0
-3 -82 31 0
-16 93 -17 0
25 -19 38 0
20 2 90 0
84 88 26 0
-58 -87 97 0
-25 -61 -13 0
-50 -40 81 0
-85 9 12 0
44 53 -100 0
-49 71 -43 0
-57 -10 -42 0
25 -2 97 0
-7 13 42 0
13 -10 88 0
19 72 81 0
-2 -11 -98 0
-99 -19 -60 0
-81 62 76 0
46 -18 91 0
-41 -12 34 0
33 55 67 0
-79 -92 16 0
19 -7 55 0
-66 53 -62 0
-90 -8 -18 0
56 -69 91 0
6 -9 99 0
-85 16 -24 0
4 55 -40 0
45 -4 -40 0
45 47 -13 0
9 49 -67 0
29 53 61 0
73 36 74 0
15 8 -12 0
-17 63 -36 0
-92 -5 -94 0
54 10 20 0
-5 21 27 0
60 32 96 0
92 20 21 0
-24 70 -43 0
24 -9 68 0
82 -66 85 0
70 -31 74 0
52 25 57 0
2 -24 -82 0
-91 -7 54 0
-20 -87 -10 0
87 50 -23 0
-72 -76 -44 0
21 -43 -78 0
-1 -84 62 0
-7 92 95 0
95 -44 -23 0
-6 -52 44 0
-20 54 41 0
11 12 23 0
-86 -64 67 0
72 -24 13 0
-27 -87 65 0
-73 -84 100 0
-76 -17 -7 0
91 -52 -23 0
33 -28 -30 0
90 -19 -54 0
-3 77 -33 0
45 -68 21 0
33 14 50 0
90 -50 -91 0
-16 40 30 0
57 50 26 0
26 48 -91 0
-85 71 61 0
63 4 -90 0
8 -2 66 0
-69 93 -82 0
-10 7 -48 0
21 92 -85 0
-34 -81 88 0
41 23 -90 0
2 31 75 0
54 -9 -65 0
-10 27 -85 0
-26 4 23 0
-26 -39 -59 0
22 -49 -97 0
10 93 97 0
-82 -80 -65 0
-12 87 -70 0
-89 -22 -100 0
34 -13 21 0
-60 65 38 0
10 71 87 0
4 6 -19 0
22 -59 -53 0
-21 88 -37 0
4 -1 -47 0
92 14 85 0
-13 -21 -91 0
88 75 -38 0
-76 51 -38 0
-74 63 68 0
58 29 81 0
5 89 -46 0
89 14 18 0
-6 94 -48 0
48 -84 -10 0
-84 -18 6 0
-95 24 -42 0
40 53 -24 0
-56 -19 -58 0
58 18 2 0
-58 -67 34 0
-51 28 46 0
-59 93 96 0
82 -68 10 0
65 -15 28 0
-19 86 -51 0
-60 -66 59 0
85 -69 52 0
83 72 -15 0
-87 -15 -7 0
92 -34 63 0
48 -78 34 0
-5 -64 74 0
75 84 73 0
-37 32 -80 0
90 52 89 0
57 -93 31 0
-55 48 54 0
-54 -44 25 0
-95 33 -39 0
22 -55 -40 0
-30 5 69 0
-32 -43 -62 0
68 84 -7 0
-32 31 -96 0
81 52 62 0
98 -26 -69 0
-33 -50 -40 0
-13 -18 7 0
99 -15 -62 0
-22 88 21 0
21 -1 32 0
48 -14 46 0
-55 -92 -38 0
30 -27 52 0
-86 -97 57 0
-15 -7 85 0
-94 35 59 0
-87 -91 50 0
-17 74 -8 0
-30 -36 -38 0
71 21 4 0
-83 -64 -34 0
-46 42 8 0
-53 74 97 0
-86 -38 -19 0
87 -31 42 0
88 -27 51 0
-62 -38 -49 0
15 -88 55 0
-32 16 92 0
86 68 -82 0
-87 -41 -98 0
-42 -65 -32 0
53 63 -28 0
88 -32 20 0
74 31 -5 0
50 -36 6 0
99 15 68 0
42 -77 -63 0
4 24 -38 0
6 -68 -22 0
-53 -70 -80 0
34 63 -44 0
-47 -44 99 0
-45 -42 -13 0
88 -47 -25 0
40 35 89 0
22 -77 24 0
87 -45 -8 0
85 93 92 0
-31 -18 -11 0
-67 -9 12 0
-16 -28 6 0
-79 7 17 0
-49 32 62 0
3 87 -97 0
-18 89 4 0
-49 -77 81 0
-11 9 44 0
66 -9 41 0
-57 64 80 0
33 -81 61 0
75 14 -68 0
-72 63 -35 0
34 -61 -20 0
54 -39 17 0
42 48 -49 0
-68 39 70 0
46 -49 -11 0
-99 86 13 0
-81 -53 48 0
55 -30 65 0
-53 86 73 0
1 -98 19 0
27 -23 -61 0
-58 90 38 0
-67 -81 -78 0
-96 -54 56 0
42 -78 -77 0
56 -88 -80 0
-50 5 89 0
-100 69 -66 0
-6 8 23 0
-30 -27 -68 0
18 -24 33 0
78 73 -11 0
7 17 -69 0
95 43 49 0
