c Coffinhead hard-core n=100 seed=4 ratio=4.0
p cnf 100 400
-45 -33 82 0
64 -81 73 0
31 -75 -48 0
29 -42 89 0
-54 -68 -26 0
18 45 27 0
65 66 -17 0
53 11 -23 0
98 15 -75 0
20 -26 -14 0
48 61 18 0
38 20 -16 0
26 52 75 0
-4 -14 -64 0
48 -41 85 0
-42 25 -87 0
-13 -15 -87 0
4 24 -48 0
56 -11 36 0
77 35 49 0
-8 -47 -22 0
-51 -21 -27 0
-20 -50 -98 0
-97 22 61 0
21 -79 -75 0
-54 17 56 0
96 73 -92 0
5 75 79 0
22 38 -19 0
-92 83 14 0
-1 -34 65 0
100 13 -4 0
-66 22 59 0
18 40 -34 0
19 -73 39 0
-32 74 84 0
18 -51 34 0
-84 -18 36 0
73 1 72 0
36 -69 -48 0
3 -53 -40 0
-56 -37 -62 0
62 -60 82 0
61 63 -93 0
94 85 -81 0
-44 -60 -40 0
47 -77 20 0
-30 92 70 0
-83 76 -66 0
15 -13 -10 0
-73 45 -57 0
81 75 -99 0
-14 -10 75 0
3 80 95 0
21 -90 -94 0
8 -27 -7 0
24 -78 -34 0
31 98 84 0
-5 -16 3 0
81 100 -93 0
-1 50 62 0
84 -81 67 0
71 -57 46 0
4 36 -17 0
-36 66 -1 0
98 -21 1 0
-41 -74 69 0
84 -64 -17 0
10 12 47 0
82 84 70 0
-94 5 -61 0
-18 33 87 0
-42 -58 78 0
34 -96 44 0
-57 42 -18 0
-92 -33 -4 0
-64 44 -63 0
-15 92 4 0
71 6 -32 0
13 89 -54 0
29 -72 62 0
-29 -66 -31 0
-89 33 -12 0
-17 61 54 0
-4 15 -45 0
-48 -37 100 0
17 -65 -25 0
-71 -52 57 0
53 86 58 0
-20 -51 -86 0
-68 -94 -65 0
28 78 -21 0
-33 50 53 0
82 68 -96 0
23 -8 88 0
-32 -18 -26 0
-3 -46 -87 0
-47 86 -32 0
4 -69 -63 0
18 -42 27 0
-88 1 -67 0
-27 57 41 0
32 -82 18 0
-74 96 -99 0
-59 -3 -55 0
-94 -3 96 0
70 -89 -13 0
30 -74 -51 0
-73 60 63 0
-22 78 -34 0
8 77 69 0
36 -34 8 0
26 70 90 0
6 -10 -38 0
-72 39 90 0
91 -69 4 0
70 38 -80 0
58 71 -51 0
-94 -67 -68 0
3 17 -42 0
4 72 12 0
21 -46 31 0
-13 32 58 0
-56 54 -35 0
-8 24 -73 0
36 -77 11 0
11 -51 48 0
-38 -5 58 0
-60 4 -44 0
45 -24 -82 0
78 -39 -40 0
-85 1 30 0
94 5 -43 0
-31 35 44 0
-61 -70 -3 0
32 -87 21 0
32 96 13 0
30 55 -98 0
-94 -90 82 0
7 68 11 0
-44 -34 11 0
-69 30 4 0
98 -74 64 0
77 32 37 0
18 -7 10 0
76 56 24 0
-66 35 28 0
90 -12 63 0
92 48 100 0
100 1 81 0
1 3 5 0
38 23 15 0
-82 -84 59 0
22 -54 -9 0
-62 -96 82 0
-48 82 -41 0
8 -6 21 0
57 -75 51 0
-49 -17 24 0
-46 -49 81 0
96 -89 24 0
-31 38 85 0
-11 -28 -25 0
2 67 -6 0
94 54 -66 0
89 -22 79 0
-70 -91 88 0
14 -83 38 0
-62 39 25 0
-97 17 100 0
-31 -30 -51 0
89 -39 -79 0
-4 7 73 0
84 -13 36 0
44 -91 9 0
38 50 89 0
53 -79 37 0
-47 -69 83 0
-32 -46 -74 0
92 -12 -87 0
-70 -16 1 0
11 99 -55 0
27 -37 84 0
84 -90 -18 0
-39 -81 -94 0
-11 97 -18 0
-1 18 -42 0
72 -60 -51 0
-64 87 53 0
31 11 76 0
-47 99 -81 0
-64 -94 -45 0
76 -38 -83 0
97 76 -2 0
-32 50 -12 0
23 66 -77 0
33 67 -89 0
-22 -1 -25 0
6 20 86 0
-60 13 76 0
66 -28 -4 0
48 -81 63 0
-98 82 -88 0
-94 89 7 0
-51 -61 -12 0
-19 78 59 0
-49 76 -74 0
100 81 -63 0
-8 -90 74 0
-56 4 -90 0
72 47 84 0
-26 88 24 0
-7 -99 36 0
88 83 -32 0
84 -9 -3 0
48 -33 -14 0
-97 61 43 0
-62 -63 14 0
-29 -77 46 0
-87 61 -15 0
-48 -27 79 0
72 54 58 0
-73 -55 -6 0
13 -14 93 0
13 -84 -5 0
8 80 -15 0
-55 -72 -7 0
-42 -88 -25 0
63 87 11 0
-17 11 58 0
100 -74 99 0
-36 -26 31 0
5 -72 19 0
-48 -74 84 0
-98 53 -74 0
-11 -19 66 0
-74 -28 4 0
-55 91 -32 0
-68 -11 -22 0
-50 25 -1 0
-85 -35 -43 0
57 -43 53 0
-53 88 95 0
-16 22 -19 0
-9 80 -48 0
-100 -26 -47 0
-94 45 34 0
-14 50 62 0
-10 38 -59 0
-38 7 -18 0
25 -46 -41 0
-83 59 -27 0
92 83 80 0
40 43 -41 0
-65 -87 31 0
-36 -93 34 0
-24 28 -31 0
38 -43 66 0
82 -69 25 0
-56 -21 -88 0
51 -34 -83 0
-54 53 12 0
70 50 -97 0
-67 99 72 0
40 79 -15 0
3 96 47 0
85 48 55 0
85 -22 29 0
91 36 -9 0
95 9 87 0
-29 -79 -19 0
13 -27 -54 0
76 -38 -2 0
47 -66 42 0
-53 96 -55 0
-10 -64 -26 0
87 -69 80 0
31 -20 -1 0
-74 19 3 0
-32 98 -56 0
-53 20 62 0
93 -7 -35 0
-76 -35 2 0
-7 -34 -73 0
-96 48 -42 0
-97 -8 -87 0
-57 4 -84 0
-86 -58 -99 0
2 -91 -56 0
-32 -9 19 0
54 -53 -26 0
-1 91 43 0
43 -35 46 0
-36 14 16 0
-82 -89 -54 0
99 94 -5 0
73 -40 -36 0
73 -74 1 0
74 82 -63 0
6 -72 -36 0
17 -7 -5 0
44 89 51 0
-5 -66 89 0
-15 -5 -88 0
29 -45 -83 0
58 -46 21 0
-16 -63 53 0
-45 -83 96 0
-43 79 -23 0
-29 95 -14 0
34 -51 61 0
50 21 -49 0
25 -95 20 0
-56 -71 13 0
-58 -64 11 0
28 1 8 0
67 51 64 0
-10 -1 90 0
61 -17 -93 0
-4 54 36 0
-54 41 63 0
-74 37 -84 0
47 -77 -29 0
-27 2 -72 0
57 -15 52 0
16 75 -85 0
-60 -66 79 0
-58 46 33 0
76 -52 -82 0
4 -2 46 0
-44 -90 -83 0
32 88 -19 0
70 -46 65 0
92 68 -28 0
53 -86 82 0
-15 -53 -24 0
2 100 37 0
1 74 81 0
3 -8 -88 0
23 -8 -35 0
-75 59 -7 0
15 7 -83 0
-62 49 -10 0
65 43 -15 0
-11 -86 -47 0
-75 -62 92 0
-53 -62 50 0
-25 -47 73 0
-5 -34 -16 0
41 -62 -90 0
14 -58 67 0
58 46 74 0
-49 -56 61 0
-48 -56 -96 0
-56 -26 -13 0
49 -48 24 0
-6 -40 87 0
61 -93 -73 0
-54 56 -45 0
-56 -32 13 0
50 -59 18 0
16 24 79 0
68 -48 -28 0
49 4 -91 0
22 -46 -54 0
27 -47 -29 0
-92 28 -24 0
-7 -98 -45 0
15 -96 33 0
58 -72 -52 0
-48 -67 -42 0
-11 -63 23 0
53 -27 -46 0
38 4 -72 0
72 16 -25 0
63 -14 -13 0
-21 38 91 0
-74 -28 1 0
75 6 -35 0
-49 -97 -5 0
68 -86 -58 0
-85 93 97 0
-36 -69 -93 0
-27 -55 -81 0
-88 -84 -45 0
-71 10 91 0
96 13 -44 0
76 17 -5 0
98 -14 74 0
2 -3 -29 0
66 -16 99 0
-54 -65 -3 0
30 52 20 0
-33 48 87 0
-59 -89 86 0
16 -66 -33 0
38 99 86 0
65 48 34 0
-85 -50 3 0
-57 -97 -46 0
