c Coffinhead hard-core n=100 seed=35 ratio=4.0
p cnf 100 400
-48 84 2 0
61 87 7 0
45 63 21 0
14 54 26 0
-49 39 -100 0
-63 -1 49 0
-29 -61 -60 0
8 -41 17 0
42 -33 -2 0
64 81 -17 0
-28 52 66 0
-4 62 -25 0
-74 -76 -69 0
-34 -50 33 0
-21 -55 -85 0
16 55 -52 0
4 22 -6 0
52 -78 25 0
20 -7 -79 0
82 -80 -11 0
2 73 -51 0
-60 -75 38 0
52 61 -83 0
-15 -6 69 0
-93 58 -67 0
14 -99 -17 0
-17 4 -33 0
-67 39 58 0
-24 100 -93 0
94 96 91 0
38 62 87 0
3 7 62 0
73 -23 -70 0
-5 -85 -82 0
-45 91 -90 0
-94 -77 15 0
87 51 -71 0
-80 70 4 0
-14 23 93 0
55 -61 74 0
-84 94 -62 0
-55 21 35 0
-63 -62 27 0
-100 85 16 0
58 -47 -78 0
81 -32 -38 0
27 11 -38 0
-64 13 -92 0
84 -77 -58 0
48 92 40 0
82 -96 -2 0
-15 52 33 0
14 -7 19 0
76 -16 23 0
-95 2 82 0
-74 -27 -73 0
26 -63 -69 0
95 52 -4 0
-38 -32 8 0
-52 17 23 0
35 1 86 0
-92 99 82 0
28 4 -41 0
-59 34 9 0
88 65 24 0
44 78 52 0
100 -2 -89 0
-52 21 38 0
-34 -94 3 0
81 -30 87 0
-70 98 36 0
72 -18 54 0
18 77 -91 0
51 -80 -17 0
-37 -41 -81 0
100 -64 -83 0
88 -73 80 0
9 53 95 0
53 2 39 0
-33 85 -95 0
-89 79 1 0
52 28 34 0
71 -94 -58 0
66 -70 89 0
-73 -30 78 0
-53 -16 -67 0
-25 -88 -38 0
-54 -3 -62 0
53 29 -24 0
-98 -44 -28 0
10 65 -74 0
94 -66 -78 0
4 -92 -94 0
-30 -16 -43 0
-59 -82 81 0
-42 74 -62 0
66 -1 -72 0
23 88 -55 0
-97 25 -38 0
8 -35 -96 0
-100 92 27 0
-45 26 54 0
51 7 47 0
-47 -91 10 0
-58 -83 96 0
52 91 25 0
-81 26 93 0
-66 -99 -85 0
83 52 -54 0
36 -45 86 0
48 51 88 0
-64 -53 86 0
32 -14 -93 0
24 -26 -58 0
42 32 -33 0
7 77 78 0
71 50 97 0
-7 18 42 0
-40 -69 93 0
80 7 79 0
-15 78 10 0
-71 -90 -27 0
-39 4 -68 0
86 -12 -33 0
22 -40 -16 0
50 25 -18 0
-17 -61 -1 0
-34 68 -30 0
-43 -36 -51 0
87 -60 -38 0
8 -80 -99 0
60 -27 23 0
-53 33 1 0
74 -24 -8 0
2 31 -94 0
94 18 -100 0
-30 -6 97 0
93 46 43 0
75 -63 58 0
-11 -63 91 0
-94 56 57 0
-6 -89 -94 0
56 -79 -24 0
-3 -29 -97 0
96 66 -40 0
77 15 -6 0
42 -86 75 0
-2 -37 6 0
-55 85 5 0
-20 62 -30 0
-4 -21 55 0
-96 13 -89 0
-6 -81 -55 0
10 -35 -2 0
29 -36 5 0
-100 -50 82 0
-51 97 59 0
77 -45 -88 0
-24 46 -71 0
-49 -30 -47 0
68 -72 -19 0
30 -11 42 0
82 -99 94 0
-83 -43 -64 0
-34 28 -20 0
72 -64 46 0
89 40 72 0
61 -77 -91 0
-8 -43 -18 0
48 -60 98 0
-61 77 -21 0
-23 80 -24 0
-86 84 40 0
-31 -7 -71 0
59 -91 -68 0
8 76 75 0
92 -13 -14 0
-32 -38 50 0
62 -24 -94 0
55 -67 -16 0
-56 15 60 0
-8 30 1 0
-95 53 -73 0
80 -30 99 0
-47 71 12 0
-84 -32 26 0
69 -56 -90 0
29 -92 2 0
-8 -61 4 0
-21 6 -64 0
78 3 -28 0
66 27 99 0
-29 -62 45 0
43 3 22 0
-70 -1 57 0
43 16 72 0
83 -6 -66 0
70 -12 -28 0
99 -29 -46 0
55 34 -62 0
50 24 -21 0
-34 20 95 0
-12 97 -11 0
92 22 -78 0
-53 76 -60 0
13 -83 -36 0
12 8 19 0
-30 -75 -5 0
76 93 98 0
92 -35 11 0
-3 18 12 0
-12 3 -29 0
-22 -30 20 0
-37 48 99 0
-59 8 -30 0
-40 1 81 0
75 87 9 0
25 67 -57 0
-21 -11 84 0
13 -56 41 0
-27 11 7 0
-46 36 -48 0
-63 12 -8 0
-4 50 -95 0
71 40 -59 0
44 53 -82 0
-17 43 -19 0
8 54 86 0
-65 15 -57 0
-21 -68 -67 0
55 -20 -60 0
3 -32 -18 0
11 67 -95 0
-62 90 56 0
-96 -77 34 0
56 -62 90 0
79 10 -100 0
17 22 87 0
32 9 55 0
-27 23 59 0
-79 -51 -40 0
58 -98 6 0
81 -54 -49 0
51 7 -44 0
69 -51 -32 0
-10 -96 83 0
-66 83 -95 0
28 43 83 0
-65 74 -68 0
63 -1 68 0
92 83 57 0
63 34 -83 0
-83 -99 -24 0
-32 -91 11 0
9 15 99 0
-99 20 23 0
57 42 -5 0
67 -80 -26 0
60 19 47 0
27 48 68 0
100 22 67 0
27 -81 -32 0
-68 1 -51 0
15 -91 70 0
18 17 43 0
19 21 -61 0
54 -26 -35 0
-14 45 47 0
-77 46 -84 0
-58 -35 -26 0
34 -45 74 0
-16 -100 68 0
62 -63 -15 0
-4 22 -31 0
-45 57 40 0
-41 54 -90 0
40 49 12 0
-46 88 72 0
-36 94 7 0
-36 91 -39 0
-85 65 16 0
-80 23 45 0
-12 89 97 0
-51 93 -77 0
83 26 -97 0
79 -83 17 0
28 14 44 0
-13 -60 19 0
-89 72 48 0
-23 -62 30 0
32 -1 -23 0
-74 -93 -45 0
-20 -6 -67 0
-92 80 23 0
-4 -20 39 0
69 -20 76 0
57 33 -12 0
-11 -50 -35 0
65 -97 25 0
31 99 67 0
70 -26 -23 0
-6 81 78 0
-98 90 -71 0
78 75 -58 0
78 -15 -88 0
-89 53 -28 0
-42 -83 6 0
-75 -86 -46 0
25 -9 76 0
-78 -43 -54 0
-19 64 -56 0
-19 -2 -85 0
76 14 -11 0
-8 -18 100 0
-25 30 86 0
-39 -47 -82 0
-35 74 -61 0
-79 29 -16 0
-12 43 -6 0
5 6 -18 0
-62 -79 12 0
73 -77 48 0
-58 83 -52 0
-67 60 -23 0
-64 11 80 0
42 72 53 0
51 -93 86 0
-93 20 -10 0
-27 -57 -48 0
58 -63 81 0
-70 -21 16 0
31 82 6 0
-96 4 59 0
12 -64 57 0
-8 66 -65 0
33 75 53 0
-42 -90 61 0
-64 100 12 0
81 62 -97 0
-72 41 -43 0
81 1 47 0
44 74 11 0
56 -97 -42 0
26 -38 -76 0
88 57 -77 0
-81 30 -61 0
57 -27 -85 0
-60 -29 81 0
-1 -81 -22 0
66 -91 28 0
32 49 89 0
98 41 24 0
92 -30 -24 0
-21 -27 -5 0
77 28 31 0
-31 91 95 0
-10 12 -57 0
34 25 -75 0
27 -24 -58 0
-8 99 -13 0
-71 60 19 0
26 61 20 0
-9 -52 -6 0
-80 -2 41 0
17 -52 -53 0
97 -27 57 0
-94 41 99 0
-49 43 -41 0
85 72 -32 0
-32 22 69 0
64 -49 41 0
-1 -38 44 0
-22 -12 67 0
1 -22 6 0
-4 76 10 0
43 8 69 0
-34 -5 88 0
77 31 52 0
40 -18 -8 0
-74 33 -63 0
15 -47 -88 0
11 69 -71 0
-79 -45 18 0
73 -31 82 0
57 60 -46 0
-34 15 99 0
50 80 70 0
19 -53 73 0
-19 -45 -49 0
-80 96 58 0
25 -31 -78 0
63 8 3 0
71 61 -57 0
-79 -67 -25 0
-83 -79 90 0
38 -28 20 0
15 89 -36 0
28 64 -35 0
57 -38 -21 0
95 29 35 0
