c Coffinhead hard-core n=100 seed=22 ratio=4.0
p cnf 100 400
43 51 95 0
70 83 18 0
-32 12 -74 0
41 10 -90 0
-22 -24 -5 0
95 -58 -87 0
-89 -80 -56 0
-86 -41 -59 0
-51 6 84 0
-45 -57 -19 0
-13 -60 -39 0
-91 -67 31 0
-13 -38 -11 0
-60 1 70 0
21 -70 -19 0
-1 34 18 0
-65 57 50 0
94 -6 45 0
-81 87 -72 0
-93 52 65 0
52 -45 -83 0
-13 19 36 0
65 -23 -95 0
28 76 -44 0
-49 -12 18 0
78 -31 38 0
4 -27 -10 0
-33 52 -25 0
58 -43 -60 0
-48 -91 56 0
-25 -81 85 0
-38 -13 -49 0
11 69 52 0
-97 -6 -78 0
-15 -77 69 0
3 67 19 0
5 -1 -87 0
-87 -88 15 0
-30 -49 76 0
69 -16 -27 0
7 -80 91 0
-2 25 44 0
-91 -86 -27 0
14 87 92 0
49 -12 86 0
91 -13 72 0
41 -60 -17 0
89 -13 67 0
78 6 -27 0
-83 9 -86 0
-4 -6 -93 0
-92 43 91 0
16 -47 -5 0
77 3 30 0
-79 -13 88 0
14 -53 -88 0
5 63 49 0
96 78 8 0
-62 47 -40 0
-31 -10 81 0
-70 6 -35 0
58 16 94 0
6 48 -50 0
-77 2 -47 0
86 -11 -96 0
-1 -14 5 0
10 71 2 0
-61 -27 -7 0
-24 99 79 0
-55 54 -21 0
-84 57 65 0
47 -84 -18 0
33 -32 84 0
39 -71 67 0
-98 -21 -43 0
17 30 38 0
-69 -43 9 0
37 26 76 0
42 81 19 0
-11 -42 -93 0
-24 96 -76 0
-34 -20 73 0
89 -21 6 0
-37 56 83 0
53 -27 -48 0
85 27 1 0
-70 -15 -59 0
64 100 -3 0
-33 64 -58 0
20 18 95 0
29 -83 -6 0
-90 45 86 0
40 100 -88 0
-76 -7 -4 0
-57 58 1 0
79 -26 -41 0
-13 -10 -65 0
-57 40 61 0
-19 35 22 0
-57 -36 -7 0
-19 -31 -61 0
-68 16 -2 0
-76 -59 -70 0
61 -12 92 0
-13 76 5 0
-55 4 -48 0
-8 98 -4 0
-4 27 -88 0
-12 26 100 0
89 63 -53 0
96 59 8 0
-90 9 33 0
80 62 29 0
22 -32 -24 0
5 42 69 0
83 6 -74 0
-14 39 4 0
-58 51 94 0
11 -74 79 0
4 -31 -69 0
-20 52 64 0
36 -59 -86 0
-51 64 8 0
-89 6 93 0
20 8 -42 0
-28 -64 -75 0
-38 -93 -91 0
99 43 -18 0
34 23 -87 0
66 -81 20 0
82 -30 36 0
-48 42 20 0
-13 -81 -97 0
-95 20 12 0
-89 -94 -69 0
33 8 75 0
-91 3 5 0
-89 24 -23 0
38 -73 28 0
-77 -83 -58 0
-10 -58 82 0
90 41 32 0
-24 -75 -36 0
43 -25 95 0
-42 -36 76 0
96 10 35 0
-34 29 99 0
-79 68 -85 0
-96 -34 -68 0
-19 22 90 0
-41 -46 61 0
-71 -12 87 0
-25 -84 68 0
51 3 -42 0
-48 -39 -47 0
-34 -89 -90 0
94 82 56 0
-78 -51 -94 0
60 -59 -54 0
92 60 -95 0
34 10 52 0
15 -89 -7 0
6 73 58 0
-67 -22 -24 0
48 40 24 0
-44 32 -56 0
14 -55 -56 0
-60 36 71 0
-67 66 41 0
41 -65 -94 0
4 -50 -2 0
78 -81 56 0
-39 -73 85 0
58 -3 55 0
92 76 40 0
88 -72 -34 0
56 -35 92 0
-48 -91 -35 0
82 15 -93 0
-100 -95 -66 0
73 86 1 0
83 -10 -22 0
-54 -61 19 0
-94 60 58 0
16 90 -61 0
-48 -20 34 0
-78 -97 42 0
52 -44 9 0
-72 43 -84 0
8 -55 30 0
94 96 76 0
100 48 -20 0
93 -2 -28 0
-22 -27 55 0
18 85 16 0
60 84 -13 0
35 -42 72 0
-92 84 6 0
73 -89 -62 0
66 33 54 0
-98 82 -32 0
66 -59 -63 0
-86 59 16 0
-99 19 39 0
59 -64 41 0
77 10 92 0
95 92 52 0
-40 74 -7 0
16 -47 1 0
-49 -82 45 0
-82 -93 30 0
-40 -87 -30 0
-84 25 -62 0
81 -40 -29 0
1 97 -73 0
72 -68 59 0
89 25 77 0
13 -89 80 0
-2 85 57 0
68 3 -23 0
69 9 32 0
52 15 -94 0
-97 -42 34 0
-36 23 -22 0
20 -5 97 0
-39 3 -99 0
-15 -87 56 0
-37 64 -100 0
-13 -52 82 0
-19 45 -70 0
19 -46 13 0
5 7 64 0
82 -36 -14 0
69 -58 -100 0
-19 47 -6 0
-29 -40 26 0
-41 6 -96 0
-80 -20 -70 0
70 9 -92 0
-55 -65 52 0
-50 -43 -93 0
6 -53 -96 0
8 4 -59 0
-59 -98 93 0
-34 -92 3 0
-43 41 76 0
66 -82 42 0
-11 98 -81 0
-46 -77 60 0
81 -36 66 0
-59 -52 10 0
-35 -46 -56 0
-62 80 -82 0
-80 -42 99 0
3 98 9 0
-39 -42 -24 0
88 51 66 0
-44 -66 48 0
-45 23 51 0
69 -70 46 0
51 -39 77 0
1 11 -94 0
-87 -78 95 0
-50 -99 98 0
58 74 25 0
76 89 77 0
71 -24 -38 0
-94 7 76 0
85 58 -96 0
-11 -41 75 0
-30 71 12 0
-70 -38 59 0
-88 42 -50 0
26 -15 78 0
-95 -55 -93 0
-67 -72 89 0
9 -83 -93 0
96 85 53 0
26 84 -98 0
80 77 44 0
-46 22 -28 0
-66 100 16 0
23 78 81 0
-60 49 6 0
100 48 -16 0
57 -26 82 0
-38 88 71 0
-49 70 -52 0
91 90 -57 0
61 16 76 0
50 -55 -33 0
47 94 -21 0
47 82 -1 0
93 99 -68 0
-21 29 14 0
-45 -69 -85 0
-18 74 44 0
58 -20 -62 0
85 94 -89 0
98 -40 68 0
87 -41 -32 0
84 20 74 0
37 -29 -28 0
-49 -61 70 0
-91 74 4 0
-7 -94 91 0
100 -77 7 0
97 -6 19 0
3 99 46 0
-37 -80 25 0
58 -75 -2 0
22 38 79 0
10 65 62 0
88 94 8 0
73 -50 -79 0
92 59 -57 0
67 -53 -66 0
-22 -15 -70 0
-91 -40 -49 0
-99 75 -20 0
41 67 56 0
-51 -91 -1 0
8 -19 -99 0
52 -96 -4 0
14 -72 -49 0
-32 88 63 0
81 91 49 0
-22 24 93 0
55 4 27 0
76 47 -26 0
54 -50 -92 0
62 71 -98 0
38 -16 -39 0
-33 -7 -70 0
-80 28 -8 0
-15 -26 -86 0
64 68 48 0
82 28 -39 0
-49 -99 -48 0
-95 -69 -99 0
64 4 -25 0
14 86 98 0
49 41 -22 0
-45 26 3 0
80 -62 37 0
97 -46 16 0
-29 -78 48 0
69 -95 -70 0
60 -32 7 0
-87 -47 84 0
-57 23 47 0
-21 -34 36 0
-89 83 41 0
-45 -67 80 0
63 30 -49 0
-22 -15 51 0
13 -55 96 0
75 -22 11 0
-40 83 41 0
41 84 60 0
2 -4 84 0
-62 15 -75 0
2 87 69 0
38 -8 37 0
88 49 16 0
100 86 -82 0
70 -26 74 0
70 -26 -80 0
-60 6 32 0
27 -84 -41 0
56 68 5 0
79 -87 14 0
-75 94 -98 0
-5 -99 46 0
-8 -99 -73 0
13 -14 -51 0
-40 -14 -84 0
66 84 -67 0
5 41 1 0
14 -52 48 0
58 -21 -91 0
14 69 46 0
-97 17 -12 0
10 -86 53 0
-51 56 45 0
64 -27 75 0
89 20 39 0
35 -6 38 0
-76 52 -99 0
-4 -37 -73 0
59 -1 -77 0
-65 33 -36 0
-83 -80 -22 0
84 -5 18 0
-47 -81 5 0
-99 -83 -100 0
-81 -77 -98 0
71 -66 -4 0
-62 -16 -18 0
-23 1 62 0
