c Coffinhead hard-core n=100 seed=25 ratio=4.0
p cnf 100 400
82 -50 55 0
67 -25 10 0
-43 -23 38 0
73 5 -37 0
60 93 -69 0
29 -12 -50 0
-68 -43 49 0
-70 -18 68 0
49 -36 30 0
11 -62 -77 0
3 46 74 0
-95 43 74 0
25 -71 -60 0
41 -18 20 0
86 -71 34 0
13 -99 -25 0
-74 -13 -33 0
8 10 36 0
-91 13 38 0
54 -39 6 0
8 -50 -76 0
-78 -1 -3 0
92 -75 84 0
-13 -46 -57 0
79 -72 60 0
3 -85 7 0
38 -48 -63 0
-49 -45 -84 0
86 19 -92 0
41 -32 -35 0
-34 11 -35 0
-81 63 -6 0
-75 47 93 0
-81 99 -34 0
-52 -57 -72 0
30 -47 94 0
-46 81 -17 0
-10 33 -86 0
-25 60 -19 0
20 -43 -26 0
-7 14 36 0
96 65 39 0
-84 79 -11 0
-64 -22 37 0
40 91 -94 0
-42 76 -16 0
-75 21 -53 0
52 15 54 0
72 2 -38 0
-9 74 65 0
38 19 -31 0
-69 -5 37 0
18 -19 11 0
-13 10 -57 0
-50 72 -88 0
-89 -74 -45 0
-31 81 -38 0
65 89 87 0
77 -57 -50 0
-80 -71 7 0
-74 -94 -66 0
-21 -56 -10 0
-82 77 -35 0
-81 50 -2 0
38 -2 -72 0
13 40 -2 0
-3 -1 -85 0
1 -84 26 0
86 54 -19 0
-18 25 60 0
76 -94 10 0
-49 -73 29 0
61 71 14 0
30 -93 8 0
-21 59 -24 0
-26 -51 93 0
6 -48 68 0
55 40 91 0
-63 44 -100 0
13 -61 -44 0
69 86 -48 0
52 -15 -66 0
-20 67 -74 0
-2 -41 18 0
-12 8 -54 0
-39 20 -5 0
14 17 -3 0
64 50 -47 0
-56 -33 65 0
52 -81 -94 0
-74 47 -5 0
35 -72 -81 0
-95 32 99 0
92 10 41 0
38 -77 91 0
-1 23 80 0
-41 18 37 0
-55 -52 65 0
39 49 -89 0
61 20 -3 0
-41 -43 -50 0
80 16 26 0
86 -96 -82 0
-63 -3 67 0
-29 86 49 0
-45 84 98 0
38 9 67 0
-89 -62 79 0
-53 -16 -92 0
-81 14 -97 0
-49 93 -98 0
87 -7 -40 0
-8 -1 77 0
59 -68 29 0
-11 85 23 0
86 19 63 0
-94 -37 -54 0
6 -55 52 0
-11 -22 98 0
-78 -35 88 0
8 -71 -45 0
29 69 -35 0
75 33 87 0
2 52 27 0
99 9 84 0
-45 -50 -64 0
45 -75 -3 0
16 46 34 0
-22 -38 53 0
-30 -44 -62 0
48 63 -19 0
-33 -86 49 0
10 40 70 0
-39 29 -6 0
-85 43 -97 0
25 -74 -43 0
-65 33 3 0
57 29 98 0
-56 -58 29 0
-62 82 -99 0
24 -7 -85 0
56 9 27 0
29 78 59 0
90 10 68 0
69 -82 63 0
-20 96 18 0
-1 -81 34 0
69 -86 1 0
-33 98 92 0
-67 38 24 0
-5 -53 -56 0
-94 79 34 0
100 -35 -16 0
-44 -73 24 0
63 60 90 0
-93 36 -61 0
17 100 71 0
97 -44 -64 0
-14 96 50 0
-13 -31 -91 0
-79 -87 -4 0
-35 -58 68 0
53 -26 -16 0
100 -7 90 0
-24 73 -46 0
-91 44 -23 0
-12 -84 -46 0
-55 -71 68 0
56 -71 -49 0
88 -62 -74 0
26 -85 8 0
64 70 3 0
-8 -71 -39 0
-66 -49 30 0
47 26 -86 0
20 -41 40 0
100 -25 -26 0
77 72 78 0
-41 60 -52 0
-64 -58 -50 0
-86 -59 -16 0
-78 24 13 0
97 84 -88 0
44 14 -98 0
-9 94 -38 0
-48 -15 71 0
-15 50 -53 0
-83 86 -3 0
69 -79 -40 0
19 40 71 0
87 -55 -10 0
-49 21 -41 0
30 -80 -22 0
93 5 -55 0
82 -89 81 0
56 49 20 0
84 -59 -79 0
-44 93 4 0
-4 36 -19 0
-33 -66 -60 0
91 -98 45 0
63 -75 -3 0
-80 90 50 0
-76 -2 73 0
-11 41 32 0
16 -62 -54 0
17 -8 -21 0
28 46 37 0
11 44 -90 0
54 -64 25 0
-95 -18 100 0
-12 72 -18 0
41 15 -18 0
74 35 -23 0
21 -35 -73 0
-29 -93 -77 0
73 -53 -58 0
8 34 61 0
-18 77 -16 0
-96 53 6 0
54 68 -64 0
-39 -9 -21 0
88 -2 -73 0
79 35 78 0
-34 -49 -13 0
-44 8 -17 0
-29 -18 2 0
-5 74 70 0
-43 87 -77 0
27 43 77 0
-83 39 -98 0
-32 -28 56 0
-73 85 -16 0
-7 -9 46 0
68 -24 94 0
-84 27 -16 0
67 99 -86 0
-6 -39 13 0
86 92 -17 0
87 92 -35 0
58 -49 -4 0
-11 -75 -58 0
-6 -94 62 0
2 15 -64 0
-64 -62 56 0
15 14 57 0
-55 -36 -3 0
-56 -72 96 0
-69 20 93 0
84 -28 79 0
-3 -61 -21 0
33 -14 -63 0
-21 -24 -76 0
95 -21 79 0
80 -94 -1 0
69 90 49 0
-75 39 80 0
10 -37 87 0
17 40 -73 0
32 -52 83 0
-1 -88 -36 0
-49 -70 -29 0
-87 -24 14 0
94 24 68 0
-69 25 -71 0
55 54 93 0
-80 93 -43 0
87 55 -51 0
-33 -11 39 0
-72 7 -49 0
8 98 66 0
-17 9 6 0
83 100 -40 0
-97 100 -27 0
15 7 8 0
20 85 -21 0
-20 -29 13 0
46 -68 -61 0
-64 14 -9 0
88 3 20 0
50 -51 38 0
-43 -15 66 0
26 29 -83 0
-52 100 71 0
73 56 -67 0
81 69 11 0
-62 -46 9 0
72 98 50 0
100 19 -25 0
96 -3 -84 0
-91 100 84 0
-91 62 49 0
90 19 21 0
-96 -52 11 0
-75 77 2 0
-29 -55 62 0
84 67 23 0
-74 -4 45 0
30 -59 73 0
10 -41 67 0
33 73 59 0
94 42 95 0
-43 -87 -16 0
53 -48 18 0
25 7 -79 0
-68 -8 86 0
-76 16 93 0
-82 -66 -79 0
-81 -32 67 0
10 -69 -30 0
52 -64 -51 0
-35 21 23 0
-25 -1 37 0
-52 -19 30 0
-59 99 -51 0
-25 -71 45 0
2 -90 -1 0
-2 17 -81 0
38 34 27 0
-43 52 73 0
-29 -48 58 0
-36 -43 -57 0
6 -42 -73 0
-95 -39 -37 0
82 -24 -71 0
9 1 99 0
68 18 54 0
-89 -79 91 0
-32 -35 3 0
63 44 6 0
36 20 97 0
-77 38 41 0
51 -4 31 0
55 -82 -42 0
-11 32 -7 0
90 45 75 0
-23 -43 -51 0
4 -72 -6 0
83 9 80 0
66 -3 30 0
-60 -83 97 0
-70 85 -53 0
4 -88 36 0
-80 69 9 0
-4 42 59 0
-38 87 -84 0
-90 16 -48 0
-76 87 -43 0
60 90 -93 0
-98 73 -11 0
-58 -21 -71 0
87 -14 -84 0
-38 14 -26 0
-90 23 -66 0
-46 -69 -37 0
18 -93 -79 0
-100 -95 81 0
-30 -77 -51 0
-27 -77 81 0
-58 -76 27 0
100 6 22 0
89 68 69 0
2 -18 -52 0
17 48 -64 0
-36 74 13 0
-66 -1 31 0
-21 39 30 0
-40 66 -72 0
7 84 29 0
55 -84 25 0
2 80 -43 0
-30 44 -76 0
48 -68 23 0
-43 -76 -6 0
78 -83 -38 0
80 66 -65 0
-36 -47 -49 0
32 57 1 0
65 92 18 0
61 57 -65 0
20 -67 91 0
-8 -29 22 0
-70 -68 -74 0
48 -59 -55 0
10 -53 32 0
18 -39 -34 0
87 13 -76 0
14 54 -8 0
76 77 -92 0
-27 81 -21 0
-58 -89 98 0
-79 -90 58 0
96 34 23 0
91 47 67 0
-62 -82 -27 0
-47 -29 -7 0
-26 -90 -11 0
95 48 99 0
99 76 -63 0
37 90 50 0
