c Coffinhead hard-core n=100 seed=30 ratio=4.0
p cnf 100 400
31 63 -85 0
60 68 45 0
63 -73 69 0
-98 52 -83 0
89 -50 -12 0
-70 -60 -35 0
-34 -16 -31 0
-93 21 14 0
51 26 -19 0
76 74 -29 0
-55 -37 -41 0
71 -99 74 0
-3 60 100 0
25 89 -11 0
-62 50 -25 0
-4 -29 98 0
-73 30 -17 0
92 -13 -39 0
65 -6 -66 0
-42 11 49 0
18 -38 -19 0
-75 79 -80 0
21 -72 19 0
24 66 50 0
-6 5 -23 0
-83 -29 -51 0
19 23 -15 0
-43 -99 46 0
-4 -15 90 0
15 43 39 0
89 -78 -75 0
63 -64 -62 0
25 -8 -100 0
73 39 -86 0
23 -81 14 0
-43 -34 -54 0
-75 -7 -79 0
14 -87 97 0
-15 27 -8 0
-27 75 24 0
-12 64 67 0
-85 97 -13 0
-24 69 8 0
14 54 42 0
34 32 84 0
-35 -30 66 0
97 -77 74 0
-31 83 -74 0
-44 -78 -52 0
63 89 -37 0
79 -87 -28 0
91 37 78 0
18 90 -56 0
70 30 -69 0
63 35 72 0
-89 17 -2 0
-51 82 -46 0
16 -97 -8 0
37 77 -85 0
82 -15 -9 0
60 -66 -22 0
-10 37 18 0
83 -64 98 0
-76 74 -99 0
-20 -55 32 0
36 20 49 0
-69 35 -67 0
-69 -35 -57 0
-33 -38 -3 0
-15 48 27 0
100 19 43 0
-6 67 -62 0
99 -53 94 0
28 77 -98 0
53 -30 -50 0
-74 57 -28 0
49 -68 34 0
74 -96 -51 0
78 -71 5 0
40 87 -82 0
25 -55 97 0
-98 3 -41 0
-70 83 48 0
-93 -21 13 0
79 -49 76 0
-47 -52 20 0
3 32 -7 0
-79 -30 67 0
-90 30 -36 0
91 -88 52 0
-65 -17 27 0
2 11 64 0
43 -83 15 0
-67 21 -54 0
-44 78 24 0
-6 -85 -2 0
94 -5 87 0
94 80 -31 0
-21 48 -44 0
-30 -41 24 0
50 4 -42 0
56 -12 -100 0
-6 28 -4 0
20 16 -59 0
-90 33 75 0
-14 -31 68 0
89 17 -62 0
60 33 36 0
-50 -72 -49 0
76 -99 -2 0
-77 79 -93 0
-9 -18 16 0
-67 41 -79 0
-2 1 -33 0
82 -98 -87 0
-44 19 -65 0
47 80 87 0
94 83 -98 0
-23 84 49 0
-97 -9 16 0
-10 48 -32 0
-10 38 -56 0
-64 88 16 0
29 88 -14 0
31 43 -86 0
50 24 -87 0
-17 57 -31 0
-99 35 54 0
-37 -6 -35 0
4 90 -37 0
-73 51 -98 0
-90 -40 92 0
16 22 71 0
-83 -88 86 0
-69 15 -12 0
7 -38 -13 0
82 43 63 0
27 87 -52 0
87 68 60 0
44 79 -46 0
89 -74 -72 0
22 55 -39 0
75 99 29 0
-2 -59 6 0
-55 88 20 0
50 -24 -79 0
-31 29 30 0
-29 -100 -1 0
62 -80 79 0
-7 46 -29 0
95 9 56 0
-84 37 -1 0
-70 58 14 0
-40 -78 69 0
3 -37 -53 0
-99 -69 4 0
23 -73 -25 0
-6 -88 60 0
-66 -79 94 0
-96 30 -28 0
-27 97 -26 0
-52 25 -3 0
-2 -89 -15 0
-29 -16 10 0
97 82 5 0
-69 -30 -71 0
11 97 -56 0
-74 11 87 0
11 73 89 0
31 -63 -80 0
54 -15 -28 0
43 -36 2 0
-60 21 28 0
33 -13 27 0
-63 80 44 0
-10 -25 -21 0
-23 49 100 0
64 -15 44 0
18 52 -51 0
-2 92 75 0
81 90 80 0
23 -35 43 0
-32 -88 10 0
41 29 -66 0
-15 91 73 0
56 -69 -63 0
-15 80 -36 0
80 28 41 0
26 -83 -40 0
85 -56 94 0
30 38 26 0
40 -5 -9 0
-89 -92 -1 0
-58 42 18 0
82 47 -19 0
-18 -94 5 0
-38 68 37 0
97 -24 -68 0
98 90 -15 0
44 62 94 0
65 -15 38 0
95 43 -35 0
48 54 67 0
93 -30 61 0
18 32 -8 0
22 -74 89 0
-46 -41 -85 0
-35 9 29 0
96 -60 -48 0
30 -42 -25 0
-98 42 71 0
54 40 -92 0
-53 -12 -13 0
-12 72 74 0
27 -52 17 0
100 -29 4 0
-58 50 16 0
-21 -9 85 0
98 -60 -17 0
72 -71 -49 0
40 -13 -56 0
12 -99 21 0
9 -44 -32 0
57 7 -63 0
-16 -62 -37 0
68 66 59 0
78 26 97 0
11 78 37 0
37 -53 -76 0
26 -91 43 0
3 63 15 0
9 -65 -31 0
-11 -69 -2 0
34 28 25 0
14 -38 -1 0
-63 57 80 0
-36 -54 62 0
-2 48 -22 0
16 67 35 0
-50 -4 39 0
56 33 -20 0
-39 -94 -53 0
-9 13 -18 0
95 14 78 0
66 63 21 0
-69 -68 -2 0
-15 -67 -88 0
20 -94 -33 0
85 -57 -86 0
-11 -41 2 0
95 87 -83 0
-45 97 -66 0
88 -22 5 0
-80 -72 56 0
88 -69 46 0
80 36 72 0
85 21 -69 0
68 38 -47 0
-77 -13 -88 0
51 -48 -56 0
63 -68 -42 0
-97 -20 -28 0
-81 15 69 0
-97 -58 59 0
46 -59 97 0
86 43 56 0
79 -73 -33 0
-14 9 11 0
-44 65 71 0
14 51 100 0
42 -96 74 0
36 55 91 0
-27 75 24 0
-94 -91 -46 0
-98 -16 -76 0
33 88 30 0
24 41 31 0
-12 -92 88 0
-69 -13 37 0
61 -16 33 0
30 47 61 0
39 -52 4 0
81 36 28 0
43 -35 -20 0
-60 12 86 0
-17 -29 -2 0
59 -70 25 0
61 12 4 0
-58 -9 77 0
-70 -2 -31 0
-66 13 -52 0
-27 -60 67 0
82 91 32 0
83 63 -82 0
-89 -70 -8 0
86 21 -47 0
-53 57 -30 0
94 77 48 0
27 58 -42 0
12 20 -91 0
95 -7 71 0
68 -80 22 0
-17 57 -47 0
-3 -74 -68 0
18 87 8 0
85 -29 -9 0
-88 -91 56 0
86 24 -74 0
-39 -16 90 0
-32 -22 -17 0
11 -43 26 0
-44 6 -88 0
1 -59 82 0
98 -42 27 0
-73 -26 55 0
60 -71 -89 0
-26 -78 67 0
-54 -86 -21 0
25 -86 95 0
-2 -94 -67 0
10 83 -36 0
7 -88 10 0
-4 -21 -10 0
93 -11 18 0
-52 -22 75 0
37 -30 41 0
-55 91 8 0
-60 -41 46 0
-85 -20 58 0
-34 -50 70 0
-56 -24 49 0
-88 -11 -50 0
97 6 -35 0
86 80 82 0
51 -2 19 0
-66 -32 -96 0
-63 85 71 0
55 32 91 0
38 -29 -97 0
83 78 73 0
32 56 6 0
21 10 18 0
-54 -47 44 0
-23 -90 -96 0
-3 -57 45 0
14 -84 -87 0
26 27 34 0
-61 -68 18 0
-10 5 -19 0
70 -89 7 0
-98 -53 -94 0
5 32 16 0
-68 78 37 0
12 -75 -96 0
91 -8 60 0
41 -99 -43 0
6 89 15 0
-46 -21 69 0
-4 31 -70 0
65 11 -44 0
-42 -16 -81 0
-81 -70 -29 0
8 40 79 0
-35 -51 -61 0
83 -21 63 0
-65 15 45 0
83 8 -21 0
-41 -51 89 0
79 -80 -37 0
-67 81 99 0
95 13 88 0
-41 36 3 0
11 64 54 0
22 -35 84 0
-44 -19 -60 0
46 -60 76 0
94 -7 -48 0
-24 53 -66 0
-44 10 65 0
-62 17 -18 0
-9 -52 -100 0
32 46 -70 0
99 62 -88 0
11 -54 -84 0
50 18 -16 0
74 36 -59 0
46 -66 -1 0
9 -67 98 0
42 -4 -96 0
36 38 10 0
82 16 93 0
-17 -96 -13 0
-66 13 5 0
2 62 -84 0
34 55 -80 0
-54 -56 84 0
-66 84 27 0
5 16 30 0
64 50 32 0
-73 -51 -69 0
