c Coffinhead hard-core n=100 seed=36 ratio=4.0
p cnf 100 400
-97 -57 -24 0
38 -58 68 0
-1 77 70 0
-53 11 32 0
-52 -100 -93 0
88 -49 72 0
-91 -74 18 0
79 54 11 0
84 99 95 0
99 -49 -97 0
16 -39 -49 0
20 -10 -56 0
49 62 1 0
41 -58 -63 0
-64 49 29 0
62 7 66 0
76 -78 -97 0
67 36 -62 0
2 -20 -90 0
97 -78 67 0
22 -91 -88 0
-73 -53 -41 0
-87 -26 58 0
58 100 -56 0
-58 73 47 0
-42 -81 39 0
68 4 -14 0
-69 35 -85 0
-38 -50 76 0
-15 10 2 0
18 91 -2 0
-64 -99 -23 0
-80 -57 49 0
-93 22 -19 0
-54 -26 -61 0
-67 29 -22 0
-15 94 -20 0
-66 -30 17 0
15 58 37 0
67 -32 19 0
-49 -7 -88 0
22 87 -86 0
-40 25 37 0
-99 56 74 0
40 79 51 0
-90 82 23 0
-81 -30 -79 0
52 74 63 0
-35 59 96 0
-8 -24 -95 0
-79 -53 -36 0
43 -90 70 0
-80 -59 -31 0
99 74 23 0
-66 18 -93 0
65 35 68 0
-15 21 20 0
-27 54 10 0
-4 46 25 0
-34 49 79 0
29 52 9 0
-68 97 17 0
94 33 -64 0
51 -22 63 0
-43 17 -81 0
-99 60 -78 0
9 64 29 0
-9 -60 15 0
-19 1 42 0
41 4 -78 0
-47 -2 -46 0
-12 20 -95 0
6 98 -41 0
-34 -17 87 0
-86 90 -2 0
-49 3 -9 0
84 37 -86 0
-13 -46 -97 0
77 27 -57 0
17 -56 -50 0
-26 63 32 0
-15 49 -93 0
28 -58 100 0
-42 95 -52 0
73 27 72 0
88 -48 -30 0
38 29 25 0
-21 40 -82 0
42 25 71 0
-85 -13 1 0
-86 53 -11 0
-13 -55 -73 0
34 -80 83 0
-9 -32 71 0
-87 -2 -40 0
-24 46 19 0
63 92 97 0
100 28 68 0
26 -65 -80 0
-2 -61 -51 0
-100 -54 -82 0
51 -98 72 0
77 -19 20 0
47 93 -38 0
79 90 93 0
38 86 -45 0
24 40 44 0
-48 35 29 0
-42 53 -40 0
73 -70 -45 0
92 -50 -44 0
98 -58 21 0
23 97 -33 0
-25 82 67 0
-22 -34 60 0
100 -18 -17 0
-76 26 -72 0
-61 74 -7 0
-34 -76 1 0
6 -4 17 0
90 22 -60 0
92 -82 38 0
-97 -62 -83 0
-22 76 62 0
42 67 -65 0
83 14 22 0
84 -86 -89 0
32 -76 -66 0
67 -66 -48 0
73 97 -75 0
31 15 16 0
51 -25 -77 0
-69 62 99 0
26 86 32 0
97 86 -44 0
1 88 -38 0
35 -40 -28 0
56 -57 -59 0
40 92 -93 0
37 -16 -55 0
-47 -42 -87 0
16 -49 83 0
-12 -73 -15 0
-60 -34 23 0
-81 -77 75 0
-40 72 17 0
78 -42 -74 0
-31 35 -95 0
-38 11 13 0
100 -10 -72 0
81 -96 63 0
-42 -65 -44 0
-75 -60 7 0
32 45 28 0
-4 18 -27 0
-17 7 76 0
-82 7 -77 0
-12 81 80 0
70 90 27 0
48 98 79 0
-45 -76 -3 0
-63 41 -19 0
-49 15 -93 0
14 78 87 0
-35 -8 39 0
-74 -96 100 0
29 18 -15 0
40 -53 68 0
31 40 -42 0
-69 -40 -49 0
-83 40 18 0
-50 -80 28 0
9 -94 16 0
42 -6 1 0
-37 -99 52 0
98 51 -11 0
35 -68 50 0
28 -78 25 0
-54 44 61 0
7 61 51 0
-70 -5 -32 0
-19 -49 -44 0
24 -40 -30 0
9 94 -92 0
-51 45 100 0
47 -18 -19 0
96 -93 34 0
-47 17 35 0
40 -48 -33 0
50 18 -32 0
24 93 99 0
87 30 70 0
-77 42 -83 0
12 96 -63 0
58 51 -52 0
34 25 40 0
75 -93 1 0
-51 9 5 0
-77 100 96 0
-79 8 -88 0
29 -43 -41 0
82 -94 19 0
60 -29 96 0
72 -34 -30 0
99 95 70 0
42 11 -56 0
25 28 -30 0
64 49 37 0
63 -86 68 0
-94 -55 -98 0
-87 -67 26 0
-24 74 93 0
-85 59 -54 0
-92 -8 25 0
20 -47 -18 0
63 92 -32 0
-47 -23 -29 0
46 -87 59 0
-29 -55 -40 0
35 -24 -100 0
25 5 63 0
96 -20 47 0
29 -94 50 0
-75 -74 21 0
1 -33 -6 0
86 23 45 0
81 -58 -63 0
-96 49 -81 0
-34 42 -23 0
-93 -64 -41 0
65 -55 93 0
-42 -57 2 0
28 -58 72 0
-24 21 -75 0
28 -59 -72 0
25 4 34 0
-59 62 5 0
-49 9 65 0
-75 26 -63 0
39 -77 41 0
-21 -10 36 0
-76 -93 41 0
79 -45 19 0
86 55 -80 0
-48 76 35 0
17 -37 -93 0
-83 -38 69 0
-50 -6 -46 0
-17 72 37 0
50 60 68 0
51 -53 -84 0
-40 -54 43 0
-99 -84 -51 0
42 -5 35 0
-37 -74 -54 0
99 91 59 0
38 -16 56 0
24 -9 -88 0
-49 -97 26 0
-87 -67 85 0
81 -30 -77 0
-83 -91 -3 0
-92 8 -82 0
-50 -28 -46 0
-65 78 73 0
-17 99 -79 0
40 -44 -59 0
-9 64 68 0
41 -57 62 0
-86 34 4 0
59 -4 -27 0
4 22 23 0
66 52 100 0
37 39 83 0
18 66 -41 0
-19 -25 -4 0
-87 58 44 0
41 14 -78 0
80 35 -2 0
-70 7 81 0
-58 25 -33 0
-40 45 54 0
-24 -79 94 0
24 -48 -88 0
-41 81 -73 0
-74 -11 50 0
-92 47 -17 0
51 -52 -19 0
30 48 -74 0
-90 -10 48 0
-22 74 75 0
13 -100 64 0
9 -30 -75 0
-47 51 46 0
13 -89 49 0
-6 2 100 0
-54 -97 -71 0
98 -10 78 0
98 -52 -100 0
98 -75 27 0
-67 -59 16 0
-78 -65 -74 0
-72 32 96 0
23 -34 -57 0
40 32 44 0
-74 29 -31 0
-7 64 -53 0
-34 -7 18 0
97 -1 51 0
1 -6 -3 0
-46 47 56 0
-23 39 -15 0
-53 -30 77 0
-75 -59 -16 0
37 -21 -93 0
80 95 -68 0
40 -26 76 0
-76 46 -44 0
-74 -48 19 0
46 -82 16 0
23 70 46 0
-89 48 -81 0
-72 -40 -18 0
-44 -81 13 0
89 -2 69 0
-33 -84 -47 0
-32 -89 -46 0
64 89 61 0
58 85 -60 0
97 -33 -46 0
-84 -95 -69 0
37 -42 71 0
-86 40 -9 0
42 -79 47 0
-36 -96 -84 0
44 -65 13 0
65 -17 -93 0
-3 -32 93 0
72 50 -37 0
41 81 -25 0
-57 83 97 0
-58 -95 49 0
86 -91 -68 0
60 1 -36 0
11 -54 -9 0
-96 -31 84 0
44 22 32 0
66 -27 -10 0
33 -66 75 0
76 -29 13 0
80 92 49 0
84 82 -93 0
-24 -90 95 0
-58 -100 -52 0
-53 11 -43 0
91 -64 -70 0
67 73 71 0
94 72 30 0
-94 -33 35 0
81 -76 44 0
-19 99 -73 0
-31 -25 38 0
45 17 -71 0
13 -1 -14 0
3 79 -32 0
18 9 -56 0
55 -60 100 0
81 -56 100 0
16 -71 67 0
49 -44 -38 0
-98 -70 -55 0
-17 92 2 0
-88 -45 -84 0
98 52 4 0
37 -94 -12 0
68 -73 57 0
-81 7 -87 0
-17 -100 -47 0
29 77 -8 0
-42 -64 99 0
-71 -38 95 0
22 83 28 0
74 -98 1 0
1 -35 66 0
-18 -84 50 0
23 -63 43 0
36 8 -71 0
-53 16 -33 0
59 35 -81 0
-73 58 -97 0
73 46 -60 0
-81 50 -99 0
-94 -26 78 0
99 58 25 0
19 -89 -43 0
27 -47 28 0
82 16 -10 0
86 -16 2 0
-35 -84 -20 0
100 22 46 0
