c Coffinhead hard-core n=100 seed=2 ratio=4.0
p cnf 100 400
23 -67 59 0
-88 13 -94 0
5 97 4 0
-87 95 -57 0
-81 -100 -53 0
-89 9 -20 0
49 -48 -94 0
99 -43 -67 0
-24 -51 12 0
-92 -96 79 0
-36 59 -54 0
76 -66 -82 0
-53 -59 60 0
-66 37 85 0
18 29 99 0
29 -75 -3 0
85 -60 -55 0
17 -92 -75 0
-58 41 77 0
-64 42 70 0
2 20 54 0
-100 20 53 0
6 -55 -28 0
-5 -49 -3 0
3 -71 17 0
-55 15 -37 0
-42 -44 -30 0
18 37 -45 0
87 -57 92 0
-1 77 -26 0
-26 84 39 0
45 75 -61 0
-56 -60 69 0
82 -84 -26 0
89 94 -82 0
13 6 44 0
93 38 31 0
-86 -19 -45 0
7 71 49 0
20 -47 53 0
89 -31 27 0
90 47 -76 0
50 79 -74 0
-100 15 -8 0
58 25 -18 0
65 83 -33 0
-54 -15 21 0
93 -16 -52 0
86 18 74 0
-100 -22 53 0
-37 90 94 0
2 -22 -73 0
88 91 -13 0
-83 60 4 0
49 10 39 0
20 -85 -82 0
-93 53 8 0
72 -96 -66 0
-28 31 -39 0
-33 35 -3 0
-93 -84 -92 0
40 71 -34 0
95 -25 -87 0
69 54 -63 0
-66 15 -85 0
48 -70 -83 0
58 -3 49 0
1 82 89 0
6 83 -86 0
-12 2 8 0
-72 -38 14 0
6 -84 85 0
-20 -86 52 0
-19 53 -1 0
-73 -13 -91 0
-49 -84 1 0
25 -82 48 0
-14 -65 -29 0
32 25 89 0
31 -30 88 0
18 -54 -47 0
98 -76 21 0
-99 -93 -55 0
-28 71 41 0
35 10 -31 0
-19 -42 -28 0
-5 -38 43 0
-79 23 9 0
46 57 42 0
-24 -3 58 0
89 98 60 0
7 -85 63 0
53 -8 -65 0
-49 93 51 0
-62 38 -74 0
-11 99 59 0
98 -73 -20 0
-16 -22 -79 0
-15 89 88 0
72 -24 -75 0
-55 74 72 0
-93 79 -38 0
23 -17 -95 0
-58 -10 -97 0
-84 -64 -77 0
-18 69 62 0
-8 68 -15 0
23 -85 -66 0
46 -3 -92 0
-50 67 99 0
-13 -44 -43 0
46 -38 -37 0
-53 82 75 0
-50 -49 -62 0
-13 -74 3 0
25 100 58 0
-19 -26 43 0
-17 82 -16 0
-26 45 40 0
-12 -25 87 0
-99 40 64 0
-2 39 -74 0
-54 -27 74 0
72 61 -93 0
91 -55 9 0
24 6 35 0
9 34 -23 0
54 -5 82 0
-7 -32 -1 0
-89 -45 30 0
-70 -92 -17 0
-95 27 -61 0
-49 -31 -15 0
-84 76 -34 0
-22 37 -61 0
44 92 32 0
14 28 -50 0
-64 56 -91 0
-95 48 -33 0
-29 70 19 0
-41 -68 93 0
35 -97 96 0
-65 -72 -27 0
46 -92 -27 0
-91 28 -38 0
45 71 -7 0
-78 -80 77 0
-10 -42 -97 0
-82 -43 -31 0
96 4 8 0
46 25 24 0
-96 71 98 0
18 -45 -42 0
-65 -73 -83 0
97 -56 68 0
72 -9 -10 0
94 16 52 0
-41 -86 19 0
-3 -97 -93 0
-93 -56 35 0
-16 33 -45 0
51 -15 52 0
-70 -96 -62 0
7 -62 89 0
-27 -80 -65 0
-75 80 7 0
86 -11 -89 0
-16 -77 13 0
67 -52 -84 0
-4 62 10 0
-73 -81 -39 0
3 62 43 0
53 81 -3 0
-72 85 87 0
32 -42 -45 0
95 73 30 0
93 -2 40 0
-70 -25 -88 0
-62 29 -70 0
80 84 -90 0
21 86 83 0
-95 -54 58 0
-13 -53 40 0
39 -18 -50 0
58 40 -41 0
30 -20 75 0
14 -61 87 0
-83 -19 77 0
-46 -66 42 0
-73 -11 90 0
94 -84 63 0
19 42 -9 0
-61 -91 35 0
-32 -31 -93 0
-97 -38 92 0
-23 -90 -78 0
-53 55 46 0
61 91 -13 0
-50 96 26 0
-22 44 89 0
-52 -98 25 0
29 -56 76 0
-47 13 43 0
5 -59 20 0
7 -56 -96 0
-34 -84 12 0
14 -87 -46 0
43 -32 -87 0
55 -28 -47 0
32 -48 -46 0
46 35 -31 0
99 -30 98 0
-45 -76 -32 0
84 66 -13 0
-18 -21 27 0
19 -88 15 0
-4 -61 -96 0
-42 -83 -53 0
23 33 64 0
-41 -60 -35 0
10 -76 89 0
-19 43 61 0
30 -81 -49 0
15 50 -71 0
69 13 79 0
-50 21 -32 0
-3 26 59 0
-39 12 -1 0
98 44 6 0
-1 30 -37 0
85 47 -21 0
-1 -56 22 0
54 -45 -67 0
100 17 -16 0
-31 93 33 0
-34 -82 21 0
-91 29 11 0
55 -89 -17 0
85 99 32 0
68 -22 93 0
26 76 -36 0
-48 21 -17 0
-28 -68 6 0
-12 -54 -68 0
-45 -61 72 0
-70 63 -42 0
-46 22 24 0
-16 90 -41 0
11 -18 24 0
-58 48 77 0
-28 74 43 0
-21 60 10 0
-11 -96 -92 0
-47 -53 -87 0
28 -53 -93 0
-2 3 -61 0
-49 -51 65 0
89 -79 -66 0
23 99 67 0
69 -92 -56 0
15 78 -94 0
95 1 -30 0
19 51 -52 0
-86 99 98 0
-77 -99 19 0
-63 95 52 0
21 -77 -58 0
-63 -98 39 0
-19 37 93 0
-30 -89 -92 0
11 -46 -6 0
61 69 -60 0
97 17 -27 0
-49 63 -5 0
-90 -14 -26 0
-78 -36 10 0
64 53 54 0
-70 17 95 0
-24 91 -21 0
20 -18 -70 0
19 49 48 0
-60 26 -51 0
45 -97 -27 0
-26 71 74 0
16 -76 14 0
-70 -83 17 0
92 21 6 0
15 24 -84 0
54 45 -89 0
97 -92 -61 0
1 60 99 0
65 81 -18 0
-16 -75 -15 0
-61 -32 90 0
9 11 -94 0
-12 -52 85 0
53 -79 85 0
-35 80 -21 0
-12 -34 4 0
-69 -93 36 0
87 52 -60 0
-91 -35 -50 0
-40 63 -34 0
-27 -73 -78 0
-9 -3 67 0
5 67 12 0
20 84 -52 0
98 49 6 0
63 -80 96 0
-100 -8 -46 0
41 -97 42 0
-36 -19 -20 0
-96 -50 10 0
-50 -11 91 0
-9 56 63 0
-79 54 8 0
-29 61 88 0
10 -44 84 0
-18 -75 -3 0
-83 -90 63 0
42 82 49 0
72 -17 21 0
-55 54 30 0
84 85 5 0
-100 19 -30 0
57 -81 -63 0
-40 -12 -85 0
38 16 -6 0
-88 100 86 0
59 44 61 0
61 -60 -100 0
97 74 -54 0
28 58 -92 0
-82 63 -25 0
77 -32 79 0
74 -91 -78 0
45 94 15 0
-17 86 57 0
23 73 89 0
-98 90 65 0
-74 -69 22 0
33 54 18 0
-55 17 62 0
-22 -19 -62 0
-53 73 -7 0
-60 -48 73 0
-83 36 79 0
100 -15 -12 0
-53 61 62 0
-77 5 -55 0
98 93 -77 0
10 95 -80 0
-88 -45 -8 0
36 -21 11 0
32 -19 -49 0
73 85 -6 0
58 42 -26 0
-12 -33 30 0
-54 -17 -78 0
-55 82 59 0
-73 -39 -48 0
-88 -77 -96 0
73 33 -86 0
91 -74 40 0
-56 -67 -18 0
59 26 -36 0
-3 100 61 0
-58 -18 -78 0
-8 10 -83 0
-36 -100 -72 0
80 -16 -73 0
-47 35 20 0
50 91 9 0
43 99 -40 0
-54 74 -37 0
5 -89 -51 0
-23 -81 -73 0
-97 51 91 0
16 69 -38 0
78 98 -8 0
62 -5 -45 0
-90 -29 20 0
-58 -28 63 0
9 -22 64 0
-83 -29 -93 0
89 30 35 0
61 95 -63 0
53 43 -71 0
-23 30 -95 0
-11 27 38 0
-33 -27 5 0
11 12 -70 0
-76 -80 13 0
31 -50 -80 0
84 -11 48 0
-64 -1 90 0
-64 -39 80 0
56 -78 14 0
-40 66 21 0
-89 67 49 0
