c Coffinhead hard-core n=100 seed=1 ratio=4.0
p cnf 100 400
62 58 34 0
22 -40 5 0
39 49 46 0
-64 5 67 0
-51 86 -23 0
-5 -73 3 0
-87 68 28 0
-44 -50 -35 0
-68 -28 18 0
9 2 -4 0
-93 -9 53 0
36 23 -57 0
47 -24 74 0
15 -50 43 0
100 -35 78 0
56 -25 -71 0
-89 -92 -42 0
-18 41 -1 0
86 97 -39 0
-82 -7 40 0
-96 -97 1 0
92 23 33 0
-61 8 -15 0
13 35 -49 0
30 61 49 0
72 -6 -48 0
41 -76 -12 0
22 64 -67 0
93 -83 13 0
33 -42 74 0
-68 95 62 0
89 36 52 0
17 -39 -24 0
-25 4 31 0
32 67 43 0
10 74 78 0
97 71 -75 0
-61 -53 -75 0
44 94 -42 0
99 43 -69 0
-20 -73 -41 0
-87 -45 -70 0
-67 -16 -100 0
73 93 -48 0
64 22 10 0
-78 -11 33 0
-52 -91 31 0
-58 33 46 0
-69 -19 -9 0
-60 61 -1 0
96 83 -47 0
-80 -48 -64 0
-17 12 -100 0
-46 67 -51 0
8 -88 64 0
-87 -50 -63 0
88 21 -22 0
24 -97 74 0
47 85 74 0
15 -67 33 0
67 -1 -96 0
66 -80 -94 0
-59 80 -100 0
-13 21 -68 0
-18 -96 5 0
-88 -95 22 0
-1 -13 -42 0
49 41 95 0
-68 -17 79 0
67 -99 -41 0
-24 -36 51 0
-93 42 -53 0
52 -76 45 0
-87 49 -78 0
-73 85 18 0
66 54 94 0
-86 55 37 0
-94 -32 41 0
80 -86 23 0
27 2 67 0
-33 27 -42 0
-62 99 -40 0
-15 74 -70 0
59 8 -98 0
-56 -77 -82 0
92 -4 -41 0
12 16 -37 0
-10 97 -74 0
16 88 89 0
42 -22 44 0
-99 65 4 0
-73 91 100 0
95 -85 49 0
24 71 -81 0
63 -24 68 0
2 -74 -8 0
-29 68 75 0
-98 -78 86 0
10 -8 -22 0
-69 -30 82 0
-89 -65 11 0
-92 24 49 0
-90 9 85 0
92 26 95 0
-44 -77 -89 0
-2 51 28 0
-74 24 -15 0
-80 -20 65 0
-82 -49 -36 0
-25 -74 -14 0
-67 70 89 0
-52 87 -58 0
16 -31 -73 0
35 20 -40 0
-71 -82 75 0
-58 39 38 0
24 32 83 0
-26 22 44 0
-46 -37 66 0
-18 -33 37 0
-41 -48 65 0
57 89 -23 0
22 -47 -50 0
-45 29 -26 0
-50 -7 -94 0
-47 -56 -27 0
45 -63 -9 0
-38 -45 -1 0
53 1 10 0
-20 5 28 0
-10 -4 26 0
-49 -46 -5 0
-34 -44 -97 0
89 10 -34 0
90 -61 45 0
-48 -40 -15 0
49 94 -45 0
6 -17 -55 0
63 -53 -20 0
-86 62 -37 0
29 46 82 0
-88 -12 -23 0
-59 -77 63 0
49 46 -74 0
64 69 19 0
79 -80 -61 0
-7 -49 -12 0
81 -28 27 0
-38 -74 -20 0
86 -40 7 0
44 -56 51 0
45 -77 79 0
4 73 -27 0
-61 -31 45 0
-90 -29 6 0
-82 73 -38 0
58 -97 -30 0
-13 15 60 0
61 49 72 0
72 -45 -42 0
-59 -82 -97 0
-35 93 -56 0
5 -17 53 0
-5 -65 84 0
-36 -3 -43 0
50 10 94 0
-23 36 -2 0
-72 -68 81 0
-20 -35 65 0
50 -27 -16 0
-37 -100 48 0
74 41 -5 0
72 -99 -39 0
49 -84 70 0
-28 2 44 0
-51 -8 25 0
36 -12 -92 0
-33 80 -49 0
-67 97 -15 0
27 15 -45 0
44 -11 38 0
11 95 -3 0
66 -7 95 0
90 24 6 0
46 42 -30 0
-37 -100 -67 0
97 -56 -7 0
-36 1 7 0
-69 37 73 0
-67 -57 47 0
-29 54 61 0
73 -17 -92 0
46 24 6 0
43 -72 1 0
-94 -58 -67 0
-61 -96 2 0
-63 -30 70 0
-89 20 -40 0
-78 79 -99 0
-12 -65 6 0
-22 -12 -76 0
-86 -22 49 0
48 -42 41 0
87 42 -48 0
-66 8 83 0
-4 53 71 0
-16 -15 -99 0
-49 44 -60 0
62 95 -92 0
-52 -61 -31 0
72 -44 -71 0
39 87 40 0
-23 -62 -90 0
88 9 -72 0
3 -32 49 0
-47 44 -15 0
-80 -28 17 0
-9 75 -72 0
-81 -21 -84 0
62 97 96 0
93 89 96 0
-11 57 73 0
68 83 38 0
-70 23 -54 0
78 -26 17 0
-6 -20 66 0
-41 69 54 0
89 78 -77 0
-5 14 66 0
-80 43 -22 0
97 -13 -15 0
67 -37 -63 0
12 74 -79 0
-25 -98 67 0
72 -99 -79 0
-54 -45 -51 0
30 28 -90 0
-45 22 77 0
-52 -27 -40 0
1 10 -69 0
38 -4 44 0
4 33 66 0
88 -5 75 0
-34 24 -75 0
31 65 -54 0
56 44 38 0
-30 36 6 0
77 25 -86 0
-11 61 60 0
94 89 -59 0
-38 -80 -19 0
1 32 -78 0
-12 20 -52 0
39 -74 6 0
-100 30 -94 0
44 -11 49 0
-34 63 -45 0
38 59 6 0
-11 3 -75 0
98 -27 -23 0
-48 -8 -53 0
42 -55 9 0
-15 44 -35 0
12 -42 -65 0
56 -3 -15 0
-6 83 5 0
-27 61 -76 0
-20 -80 -92 0
-16 58 -96 0
-30 81 -29 0
-85 20 52 0
37 -42 -85 0
92 64 -75 0
-19 48 -46 0
99 -26 5 0
5 18 -66 0
-51 -57 30 0
71 14 42 0
95 -32 60 0
-45 83 80 0
85 -16 15 0
-2 9 71 0
8 -4 28 0
18 -98 33 0
-6 59 -3 0
-84 -51 2 0
-79 52 -23 0
100 -32 -35 0
-42 57 -68 0
58 17 -22 0
-59 -42 19 0
61 -52 -90 0
-19 -85 65 0
-99 6 -93 0
-31 -73 87 0
-47 -34 -92 0
-56 -39 -19 0
-44 -15 21 0
-92 81 36 0
92 -14 30 0
-32 -62 13 0
28 -91 -42 0
23 51 43 0
-33 -63 2 0
89 28 -32 0
-69 12 -77 0
37 -86 -2 0
38 -26 15 0
50 -15 31 0
11 87 -95 0
-84 64 -14 0
-19 -94 3 0
-34 9 68 0
100 23 -29 0
-56 32 -91 0
2 -21 10 0
-46 6 4 0
-100 -90 -20 0
-58 -2 -76 0
99 -96 -87 0
68 -39 -25 0
-3 8 -82 0
-54 -13 -86 0
63 24 88 0
-76 7 -56 0
-8 -97 -13 0
-97 -6 48 0
84 -31 95 0
-77 67 -37 0
75 85 -93 0
95 -27 69 0
30 80 41 0
67 98 27 0
-6 18 -86 0
23 -36 -63 0
-30 89 3 0
-35 -57 19 0
-7 26 -22 0
79 -41 4 0
31 -75 -11 0
55 59 31 0
-72 98 43 0
57 -60 -19 0
52 4 86 0
7 79 22 0
-81 99 92 0
91 90 77 0
-85 10 83 0
-56 -79 -30 0
68 -17 3 0
31 -20 -13 0
30 -28 46 0
-49 -28 -71 0
-1 72 11 0
69 -37 -58 0
16 -33 -98 0
-13 50 -81 0
31 79 11 0
99 74 -78 0
-52 50 -67 0
20 44 -14 0
-72 9 78 0
-32 69 -82 0
-92 28 -39 0
1 63 86 0
15 13 91 0
-8 95 -5 0
-96 12 30 0
-54 14 -91 0
55 -50 57 0
39 91 -16 0
39 70 -94 0
-38 63 -43 0
-84 20 81 0
38 75 -46 0
4 -32 34 0
-42 -11 -72 0
82 47 -97 0
75 -42 68 0
-69 7 -73 0
45 89 -58 0
51 87 -39 0
30 -58 37 0
-5 58 31 0
45 -63 6 0
97 -56 48 0
-61 -83 -9 0
-46 83 9 0
6 11 74 0
-98 100 -66 0
18 100 -37 0
-81 -58 -100 0
-17 -85 -99 0
5 -58 76 0
34 74 95 0
-85 26 89 0
99 -65 -44 0
-56 7 -93 0
86 33 -83 0
29 63 21 0
