c Coffinhead hard-core n=100 seed=19 ratio=4.0
p cnf 100 400
-16 -12 35 0
48 26 58 0
-40 -18 48 0
-84 -97 -60 0
-99 2 -88 0
-92 70 -63 0
19 -86 13 0
59 92 -31 0
89 -72 13 0
43 -83 -97 0
-86 13 -39 0
-61 -38 -6 0
6 72 -57 0
-88 87 -55 0
-81 9 20 0
-64 73 -80 0
-3 76 67 0
87 -75 -52 0
75 6 -12 0
91 -30 10 0
-61 -68 65 0
7 -23 -68 0
75 43 -26 0
-11 -30 66 0
69 13 -77 0
-11 -35 -7 0
-44 -56 -58 0
-10 -54 64 0
62 -88 75 0
-8 73 -11 0
94 44 -16 0
-31 -59 -80 0
97 51 54 0
26 95 3 0
-43 -52 -18 0
5 -42 -61 0
74 85 -33 0
-99 20 -86 0
17 -75 92 0
-98 -52 14 0
-46 -2 55 0
73 -20 -18 0
-72 99 -47 0
65 -85 47 0
100 84 68 0
100 -4 50 0
-36 -59 -82 0
73 91 81 0
38 65 75 0
4 56 13 0
56 53 59 0
-75 60 13 0
80 63 -96 0
86 39 47 0
-36 81 -48 0
25 92 13 0
99 57 -51 0
77 -28 -66 0
-5 97 37 0
10 -82 -73 0
-61 67 62 0
41 61 -70 0
-50 97 81 0
64 -11 62 0
16 46 -88 0
44 -32 80 0
-26 33 60 0
29 -22 -56 0
34 -78 -22 0
2 41 12 0
69 -73 70 0
-22 66 91 0
78 -50 -33 0
35 64 86 0
3 -54 -77 0
7 3 -59 0
-100 26 53 0
-70 97 -73 0
35 -95 -89 0
-56 82 55 0
-49 80 -99 0
71 48 -84 0
74 53 16 0
-80 63 -83 0
-33 -17 -35 0
-94 100 34 0
-41 50 91 0
-99 91 28 0
-24 83 50 0
-67 2 75 0
82 -33 -5 0
21 96 100 0
-38 -56 -16 0
97 -40 -8 0
69 7 -50 0
14 77 47 0
80 -67 -1 0
67 -68 -15 0
37 -58 21 0
99 47 94 0
60 32 -77 0
100 -31 -73 0
-12 -40 14 0
89 93 -79 0
20 88 64 0
21 -51 58 0
-17 -10 -15 0
-27 -82 96 0
-82 69 -28 0
-7 -80 55 0
-72 -66 -60 0
96 -46 -84 0
-27 7 -88 0
59 -49 76 0
2 61 -98 0
37 58 9 0
33 11 -19 0
-48 -72 -10 0
17 94 -97 0
-58 74 33 0
-21 -43 -76 0
33 93 92 0
67 64 95 0
-35 32 63 0
-34 58 -8 0
35 -89 75 0
-36 88 -86 0
-20 -60 -84 0
-72 68 56 0
-82 -24 47 0
14 27 -86 0
-31 89 -52 0
46 -72 -100 0
-18 -60 -1 0
-81 -60 -20 0
17 -70 92 0
54 -9 39 0
-89 48 -86 0
-88 -39 8 0
60 -79 46 0
26 -31 -24 0
43 -41 -30 0
-70 61 22 0
97 -84 17 0
87 21 10 0
30 -39 84 0
-72 71 -86 0
-9 82 97 0
57 -94 84 0
84 -44 81 0
87 48 -51 0
-78 -52 -59 0
-62 52 -49 0
-66 -62 57 0
-11 -54 83 0
-73 80 18 0
100 -56 -69 0
53 68 -58 0
-29 20 -96 0
-20 16 -36 0
6 17 35 0
59 48 -11 0
-60 62 -30 0
-66 -45 -51 0
-78 93 -77 0
-13 -12 -51 0
-38 86 -73 0
-97 25 -80 0
-44 74 -23 0
-67 -9 -54 0
-49 -77 -68 0
-49 -3 33 0
15 56 51 0
1 -99 9 0
64 13 2 0
56 13 5 0
78 65 -64 0
93 13 10 0
-82 85 32 0
15 39 -71 0
-79 -75 66 0
-69 -12 -54 0
62 -37 -88 0
25 -46 64 0
62 98 9 0
-3 89 -56 0
63 -84 29 0
7 -77 45 0
-81 -39 93 0
38 -36 61 0
92 1 100 0
-77 -34 57 0
-15 -23 -14 0
-7 -75 -35 0
35 -73 -20 0
-37 -12 -96 0
-9 78 49 0
57 23 100 0
-77 41 -67 0
69 54 -95 0
11 99 66 0
-38 52 -29 0
-33 59 -21 0
88 80 -15 0
-56 44 -83 0
67 90 53 0
-58 -13 90 0
73 -48 -92 0
-73 15 -95 0
82 -76 9 0
7 10 92 0
59 -91 -35 0
-97 36 68 0
59 57 25 0
38 6 -89 0
17 -20 -63 0
84 65 -16 0
-41 35 -34 0
33 52 60 0
57 -86 100 0
-95 39 -28 0
20 6 -38 0
26 -12 -76 0
80 65 -26 0
90 -62 29 0
84 -73 -50 0
28 38 20 0
76 2 -92 0
98 -63 3 0
15 -9 -95 0
-88 74 -37 0
-82 -8 -27 0
62 -10 -12 0
-90 -11 -33 0
18 -1 -78 0
64 54 15 0
38 -64 67 0
-79 -86 51 0
92 -80 31 0
-43 19 76 0
-99 -43 35 0
66 -42 -59 0
6 10 65 0
-48 50 94 0
-45 -80 11 0
63 -31 24 0
57 -52 -83 0
41 15 32 0
41 5 -7 0
91 79 4 0
45 81 -25 0
37 -42 94 0
34 -53 -3 0
-66 -49 -9 0
-48 -70 -69 0
47 73 28 0
22 -78 -97 0
85 87 -91 0
19 -41 -56 0
-9 53 89 0
59 -36 -21 0
17 1 5 0
-32 -29 17 0
20 58 -5 0
-34 -56 -49 0
-30 37 2 0
-71 52 54 0
-61 1 -94 0
63 -85 -46 0
-27 -100 -12 0
40 49 -3 0
-22 96 31 0
-5 -39 -21 0
96 82 -22 0
35 63 61 0
-100 38 -92 0
2 78 -90 0
67 30 4 0
-50 30 19 0
-41 7 -38 0
35 5 95 0
53 -60 -81 0
69 -55 5 0
-53 -13 34 0
-20 72 98 0
-94 75 -87 0
30 -19 -39 0
-33 -51 57 0
94 22 -32 0
31 84 -30 0
74 -22 62 0
-34 -24 -60 0
90 43 20 0
-21 83 60 0
64 -88 -68 0
67 -64 29 0
-18 16 -97 0
-21 -8 -35 0
20 33 -5 0
-94 31 44 0
-42 -92 51 0
-73 -60 84 0
-2 40 -87 0
43 -27 -47 0
-31 55 -36 0
-39 21 37 0
-9 100 68 0
45 -85 100 0
2 -64 96 0
86 3 -58 0
-12 -40 28 0
-28 18 -69 0
-81 11 -83 0
61 21 34 0
-27 -74 -58 0
-81 -27 -64 0
-39 -49 53 0
17 -16 -24 0
4 64 1 0
74 -55 31 0
-44 7 81 0
-56 -17 -71 0
-58 42 -46 0
-57 -20 -53 0
-99 86 50 0
-4 65 60 0
-1 92 -12 0
-33 45 69 0
48 23 -29 0
39 -87 -76 0
-39 -62 59 0
99 8 68 0
-28 -11 3 0
88 -71 20 0
-3 32 31 0
73 -48 31 0
-10 36 -85 0
-24 -96 99 0
18 -84 29 0
1 -79 -86 0
13 48 -88 0
88 69 -53 0
70 -12 16 0
64 28 42 0
52 90 -11 0
29 17 -12 0
37 34 -40 0
-39 47 79 0
-62 -1 -83 0
-58 27 -25 0
-30 73 -32 0
-88 67 -35 0
8 27 1 0
72 56 94 0
92 -30 -34 0
-75 -9 66 0
66 -79 8 0
-27 -72 -58 0
41 78 -54 0
-67 -75 99 0
47 -59 -95 0
95 -81 -34 0
-20 77 49 0
-40 15 71 0
78 -14 16 0
63 78 -15 0
-91 -56 27 0
-74 -40 -62 0
73 39 -34 0
-26 45 -83 0
29 76 -98 0
-17 -26 18 0
79 58 77 0
-84 21 -54 0
-53 1 -56 0
61 57 25 0
96 -97 14 0
-95 -7 -53 0
-54 -75 17 0
-54 14 87 0
49 -39 -14 0
26 16 47 0
-37 56 14 0
39 -28 -73 0
-3 -45 33 0
-16 -84 -10 0
-46 43 19 0
-40 -4 45 0
81 -44 8 0
-24 28 -79 0
-53 -79 7 0
81 56 25 0
-45 -34 -6 0
-26 -71 -52 0
-90 46 80 0
10 -59 -5 0
8 -60 61 0
-84 77 -16 0
-93 -4 -56 0
-45 -29 -61 0
