c Coffinhead hard-core n=100 seed=37 ratio=4.0
p cnf 100 400
58 90 15 0
-29 -19 -12 0
11 -61 -97 0
-64 -31 -38 0
-22 91 -7 0
16 -1 -2 0
-33 95 -27 0
2 21 49 0
69 50 -60 0
-39 6 -52 0
36 -99 89 0
-9 72 -88 0
-87 19 -50 0
-19 -17 45 0
81 95 -66 0
-71 11 96 0
36 -19 -74 0
76 -48 -66 0
-93 100 -12 0
86 -80 -98 0
15 -39 60 0
96 91 17 0
-75 67 36 0
-82 -6 -8 0
5 -73 -43 0
43 -46 18 0
-44 93 -47 0
6 -14 -31 0
74 -56 -44 0
67 17 -5 0
59 -57 23 0
-85 12 18 0
-53 -76 -7 0
-13 -26 52 0
80 11 31 0
57 -38 93 0
8 -62 34 0
-88 -34 53 0
27 -78 -74 0
-10 -14 78 0
-14 17 -74 0
76 29 -50 0
34 67 -43 0
1 14 7 0
-43 -9 -64 0
69 -9 7 0
-79 61 -83 0
34 -73 59 0
36 44 92 0
-60 34 -93 0
-4 19 -17 0
14 52 -30 0
86 -27 31 0
-82 -92 13 0
-47 -56 62 0
-17 -22 94 0
-36 39 -85 0
91 41 -99 0
-36 -57 -7 0
98 -46 -61 0
7 -44 -87 0
-76 32 -74 0
59 6 -54 0
-78 -95 11 0
67 12 -90 0
-30 -84 -99 0
83 -51 77 0
-21 -55 -23 0
83 -43 47 0
89 -46 24 0
-45 -18 -31 0
-93 -42 -43 0
-41 98 88 0
-27 1 9 0
74 41 -85 0
16 3 -36 0
99 -5 -83 0
72 88 79 0
-70 61 36 0
48 14 -86 0
-46 13 -64 0
90 60 33 0
-49 79 -30 0
100 54 12 0
61 -88 44 0
-90 -47 -54 0
-38 80 47 0
44 -84 75 0
91 90 85 0
-56 72 -63 0
17 -53 -39 0
12 -84 11 0
-83 -8 -17 0
1 18 -91 0
78 35 -48 0
-11 65 39 0
-62 -28 -34 0
91 -97 -70 0
58 -40 -16 0
39 -43 -67 0
-97 86 -69 0
36 -88 84 0
49 -17 -93 0
16 -84 44 0
-93 22 85 0
22 -56 8 0
-44 -49 39 0
76 -98 5 0
-86 26 -79 0
61 -27 -85 0
67 -17 -90 0
-85 46 -63 0
42 -73 45 0
-45 97 34 0
-41 94 87 0
71 -46 -68 0
-65 -32 -15 0
14 -41 -3 0
-82 -24 -84 0
100 -47 -94 0
14 -12 2 0
44 -52 -15 0
4 5 20 0
93 76 64 0
-64 -79 -21 0
-99 63 44 0
63 36 21 0
49 96 68 0
-53 26 -51 0
-46 -44 -51 0
-54 -18 83 0
66 22 -57 0
-86 78 48 0
15 10 -36 0
-94 81 7 0
41 -56 -63 0
94 -54 36 0
-47 -41 12 0
52 90 31 0
61 -65 -8 0
4 -58 7 0
-47 74 30 0
-9 -35 -69 0
-32 72 -71 0
50 -46 -58 0
12 -86 -19 0
11 -34 -84 0
-55 66 99 0
-79 -25 78 0
39 -79 36 0
88 36 -41 0
-79 10 -78 0
3 96 63 0
-57 80 54 0
85 21 -53 0
-76 87 70 0
16 30 -32 0
46 96 -100 0
-91 -7 -68 0
-15 -2 -13 0
-87 -85 -52 0
85 -61 49 0
86 97 94 0
-86 23 -19 0
33 74 -12 0
-86 -71 -30 0
-13 -41 -33 0
-30 41 10 0
-8 -35 -23 0
60 46 -65 0
57 2 -11 0
37 -7 -17 0
-90 -41 60 0
-36 -65 -88 0
76 77 -41 0
-14 -85 66 0
72 -7 89 0
-47 81 19 0
24 91 -35 0
39 -33 4 0
-26 -76 -53 0
90 -57 -9 0
18 -48 -63 0
-6 -1 60 0
70 -61 33 0
11 -25 98 0
-4 -21 -73 0
-65 -35 -98 0
-36 -85 -81 0
-26 56 45 0
52 -10 89 0
-12 -98 -16 0
90 81 -80 0
-33 80 54 0
60 47 12 0
-92 86 -39 0
49 -1 -55 0
36 -38 37 0
-46 87 -38 0
-57 89 -52 0
-58 -68 -100 0
75 -77 44 0
-12 100 35 0
-16 56 9 0
82 84 -7 0
-32 98 24 0
-31 69 -4 0
38 9 -20 0
18 13 -58 0
-75 -62 -2 0
-77 50 98 0
54 -65 8 0
81 -57 77 0
20 -86 13 0
3 -38 -42 0
38 85 -1 0
-42 97 -83 0
18 -90 14 0
-80 -3 -71 0
5 93 -54 0
-8 -29 73 0
87 68 -24 0
71 1 -12 0
5 67 44 0
80 99 41 0
-60 90 -58 0
13 38 92 0
80 -54 -45 0
-38 -37 20 0
-16 62 -38 0
19 -26 -25 0
-38 -19 1 0
-25 -55 17 0
12 -54 10 0
-20 -56 71 0
-11 73 66 0
-93 90 53 0
29 78 -49 0
64 -49 83 0
19 -76 -33 0
-66 -64 11 0
-97 80 76 0
-6 18 -95 0
-45 21 -74 0
-62 90 -100 0
36 -76 4 0
46 -100 7 0
-66 70 38 0
-61 -39 -52 0
-88 -33 -64 0
62 68 -64 0
-2 56 95 0
92 -38 37 0
-58 -80 -46 0
-88 -16 89 0
-85 -90 29 0
-83 93 42 0
68 -3 63 0
39 -87 42 0
2 -76 -53 0
24 -76 -29 0
55 -94 -19 0
18 -77 9 0
13 -22 14 0
-11 -28 -2 0
-54 -20 -1 0
7 26 88 0
-46 -40 45 0
5 24 66 0
19 -17 -70 0
52 83 17 0
14 -84 97 0
95 -7 -33 0
10 27 -26 0
88 -60 65 0
33 43 10 0
-15 -5 86 0
-23 -55 -33 0
53 -46 14 0
35 -95 87 0
-4 -77 -2 0
57 14 98 0
-50 70 66 0
19 -29 31 0
-43 45 46 0
83 -8 -86 0
48 99 1 0
64 77 5 0
-10 92 43 0
82 -87 93 0
-52 -17 16 0
28 -99 64 0
33 66 -20 0
-63 39 85 0
-25 53 -99 0
41 96 52 0
75 -31 -32 0
-49 20 -39 0
68 -38 -17 0
28 -83 90 0
48 56 -26 0
51 6 36 0
-36 -3 -58 0
-58 -17 -34 0
-51 -71 -16 0
-73 -91 77 0
2 -99 -88 0
-66 -61 68 0
5 -39 54 0
-61 22 -90 0
99 37 -28 0
-63 -9 -13 0
32 49 -76 0
-97 46 33 0
91 43 -14 0
75 53 61 0
-3 45 -78 0
1 -53 42 0
-58 18 32 0
64 49 -73 0
-58 -16 56 0
2 76 59 0
-55 13 -72 0
28 -4 9 0
54 -96 67 0
9 -11 -35 0
-34 -53 50 0
59 67 49 0
15 82 16 0
22 -78 62 0
-52 -70 -73 0
-47 32 -26 0
-61 56 73 0
47 88 -8 0
68 19 93 0
-90 100 36 0
-15 -12 -40 0
-18 -48 85 0
-62 -81 29 0
-94 -55 -48 0
-70 -20 -38 0
-54 7 -8 0
-6 -48 -25 0
-10 -5 -46 0
27 87 -42 0
-19 -64 -39 0
17 -96 -25 0
49 43 -4 0
39 2 -90 0
-59 60 34 0
28 -50 -68 0
100 -78 -30 0
-82 19 41 0
-46 -22 -95 0
-97 -75 -45 0
93 -33 -48 0
-89 -40 66 0
10 41 -50 0
-86 -54 -27 0
-82 -86 79 0
28 -94 51 0
-18 -37 67 0
36 26 2 0
-91 -43 40 0
-58 -93 43 0
26 55 30 0
-81 -25 -77 0
87 -19 88 0
-99 -70 -92 0
-33 -23 53 0
34 10 74 0
-40 -99 86 0
-20 -96 100 0
-38 -27 -17 0
17 -27 -57 0
-9 -15 -12 0
78 24 -92 0
79 54 -88 0
12 -15 62 0
20 27 51 0
84 -13 -39 0
-94 -35 25 0
-37 -8 -21 0
34 -100 38 0
-15 32 93 0
-75 36 1 0
66 -4 100 0
80 90 -15 0
-98 26 46 0
4 97 -82 0
-42 -33 10 0
-23 84 17 0
-58 -67 -14 0
-54 18 -4 0
-10 -8 -70 0
-72 -64 -87 0
-86 91 63 0
-62 64 46 0
-47 -84 -4 0
-61 -88 53 0
