c Coffinhead hard-core n=100 seed=6 ratio=4.0
p cnf 100 400
67 -23 -8 0
29 73 78 0
-31 83 5 0
63 24 17 0
-50 -81 -66 0
50 -65 38 0
-69 15 -6 0
-99 25 -93 0
-6 86 -23 0
78 -2 -96 0
25 70 -58 0
-48 -11 -40 0
-68 78 -66 0
-84 -42 -1 0
61 53 -94 0
38 -25 89 0
-85 76 -89 0
-41 -47 74 0
16 54 -98 0
-97 -13 -68 0
-68 95 98 0
69 77 -66 0
90 -39 18 0
-92 -37 80 0
25 94 -53 0
-36 -84 42 0
-88 -68 -47 0
48 28 68 0
59 29 -40 0
-92 -24 27 0
-72 30 100 0
-56 83 -67 0
-32 -13 69 0
-87 -84 -24 0
2 9 -14 0
-91 -44 85 0
89 -75 23 0
94 78 -34 0
-42 -10 -7 0
-21 -85 34 0
5 44 73 0
7 35 10 0
-92 45 -12 0
-3 31 -7 0
14 30 -2 0
22 33 18 0
-8 -15 89 0
5 -60 -11 0
33 -73 64 0
-79 -19 20 0
81 -74 50 0
-6 54 -4 0
50 92 66 0
-47 90 -17 0
-95 99 33 0
-80 52 98 0
-35 69 -53 0
-28 86 -82 0
-10 -62 4 0
-23 -42 91 0
-64 29 -55 0
-44 45 57 0
-91 -31 -78 0
-81 -9 49 0
-28 -39 -23 0
-90 22 52 0
53 52 -1 0
-33 -40 69 0
7 -50 -29 0
-24 -11 -65 0
-99 -14 92 0
-24 16 -38 0
-62 -81 88 0
-1 60 29 0
-12 76 -1 0
40 -54 -73 0
57 44 -31 0
-17 -24 -7 0
40 -97 -67 0
-66 54 94 0
-72 93 10 0
-58 -5 -44 0
70 -65 -45 0
23 -53 35 0
-9 -8 87 0
37 -3 -83 0
-76 92 18 0
87 -63 41 0
36 -46 -17 0
-93 11 -58 0
48 18 59 0
19 23 48 0
-48 17 -16 0
78 25 -38 0
52 85 -39 0
47 58 -80 0
-17 7 -14 0
58 3 23 0
40 -44 76 0
16 2 -21 0
-28 75 60 0
-58 -40 -43 0
-90 15 71 0
-70 -90 50 0
2 61 59 0
-83 33 -14 0
20 -93 -72 0
-56 -81 63 0
-50 -72 54 0
2 26 -49 0
-60 40 52 0
16 35 -43 0
-13 20 38 0
-17 -12 61 0
-78 -57 -16 0
44 -24 -31 0
44 -83 24 0
17 -76 1 0
91 77 -64 0
34 74 -45 0
55 -51 -44 0
-57 -65 39 0
24 21 -78 0
-62 -86 -57 0
-28 89 42 0
29 -15 67 0
-32 86 79 0
67 -24 -62 0
2 76 69 0
99 15 86 0
-43 -61 40 0
32 -100 69 0
69 -61 16 0
44 -89 91 0
24 -99 40 0
-24 32 10 0
-13 80 -66 0
-11 -28 -71 0
99 21 94 0
-39 -6 -62 0
84 23 7 0
-85 19 -50 0
-32 38 29 0
26 -51 68 0
94 39 -63 0
-8 -58 -2 0
14 63 -27 0
-35 99 13 0
-60 16 6 0
58 -97 -57 0
-52 -58 -93 0
-14 68 -56 0
-44 -28 -46 0
-75 71 26 0
-8 89 -31 0
33 -67 -52 0
81 70 -73 0
35 61 18 0
97 57 -25 0
-29 88 -71 0
27 24 -60 0
-21 -66 -97 0
-31 22 -50 0
-51 43 57 0
-87 -92 71 0
70 56 32 0
-98 12 88 0
-63 76 24 0
14 -91 31 0
-26 -27 99 0
64 52 -18 0
13 73 30 0
72 87 -81 0
-13 -77 -46 0
2 34 99 0
48 34 39 0
-9 -90 -69 0
11 -3 -33 0
19 -87 -32 0
40 49 73 0
80 55 -74 0
-49 78 -33 0
74 99 91 0
60 76 -64 0
-84 85 47 0
-3 42 -31 0
65 -78 -74 0
7 88 -64 0
-8 -55 -60 0
47 43 53 0
-51 -84 -21 0
-19 60 54 0
-9 -56 -47 0
10 69 -31 0
89 44 32 0
74 77 20 0
-75 40 -77 0
-68 32 -78 0
-85 53 95 0
-1 -3 -72 0
-43 -80 -26 0
28 -51 81 0
-98 -86 13 0
-53 93 -25 0
60 20 -64 0
81 49 64 0
83 -99 70 0
1 84 79 0
48 55 40 0
-12 80 -51 0
76 -58 -17 0
61 17 -15 0
20 23 -28 0
45 89 -79 0
71 -11 -38 0
34 -28 8 0
10 52 -16 0
11 -61 53 0
-76 -29 77 0
12 -86 -60 0
-87 -89 24 0
-64 -94 73 0
25 -65 -84 0
-33 -67 12 0
20 91 96 0
-32 -90 -97 0
89 -80 94 0
-93 13 74 0
-78 95 52 0
-4 67 -48 0
-69 -7 -88 0
60 -78 94 0
51 85 35 0
91 1 -95 0
-61 -8 -52 0
46 10 -21 0
63 -73 92 0
-89 -1 11 0
-85 33 -9 0
1 2 35 0
-36 -94 22 0
42 35 -27 0
46 81 -43 0
3 -7 -79 0
30 28 -29 0
39 -69 -90 0
85 82 93 0
3 -36 -96 0
-93 56 -97 0
18 -21 -6 0
51 5 18 0
-72 -55 96 0
100 65 -50 0
5 61 60 0
70 -82 -65 0
-5 -64 -41 0
-36 -37 60 0
38 -57 -87 0
-76 34 75 0
-69 48 -24 0
-13 -48 -80 0
13 69 -83 0
-2 -56 -50 0
29 -75 99 0
38 14 32 0
24 -78 75 0
-3 60 -80 0
25 -30 -63 0
-80 -29 26 0
-22 -45 -99 0
-43 78 -35 0
-56 21 97 0
-91 -99 -77 0
90 53 9 0
100 52 -67 0
74 -1 22 0
13 -67 -36 0
22 68 12 0
9 -84 6 0
13 73 -52 0
25 59 64 0
-80 -86 -19 0
-14 -26 21 0
61 67 33 0
-46 62 -1 0
-34 82 -5 0
-84 -88 28 0
76 -83 -70 0
-17 -26 68 0
-80 -70 93 0
-69 10 75 0
-11 96 92 0
85 -46 1 0
-95 35 67 0
-22 -86 -13 0
-72 -71 -31 0
-54 -75 -93 0
-22 17 53 0
-67 10 -71 0
30 -31 -11 0
70 85 56 0
-77 -99 19 0
88 -33 -62 0
-4 61 -12 0
-61 -14 -67 0
53 41 -19 0
43 -16 -77 0
56 -33 6 0
25 1 18 0
58 -90 -18 0
-35 -6 -1 0
-10 35 51 0
-23 -17 14 0
-65 29 -32 0
-47 50 -36 0
55 94 -33 0
-22 -98 91 0
33 71 -19 0
-12 75 -24 0
-78 -86 -29 0
-14 -13 -2 0
24 -6 -36 0
-43 -57 26 0
77 47 59 0
14 -70 -74 0
66 23 40 0
-21 -85 27 0
-18 22 13 0
18 9 -81 0
-52 -82 -79 0
-26 76 41 0
-99 97 -60 0
-17 -31 -22 0
9 36 21 0
-100 73 82 0
-30 -12 -28 0
-59 84 -83 0
73 -84 78 0
42 33 -83 0
87 -22 34 0
60 44 31 0
-4 2 31 0
-68 -98 49 0
-30 -47 -37 0
33 -63 23 0
-39 -57 -86 0
-73 48 59 0
52 95 50 0
-85 80 10 0
-51 -29 58 0
60 -15 34 0
47 19 56 0
80 -54 -36 0
-83 73 50 0
79 75 83 0
6 -46 69 0
18 -89 -25 0
4 -77 8 0
-32 38 -81 0
-79 74 -29 0
91 -33 47 0
68 18 99 0
89 -65 -56 0
-53 -30 -54 0
-27 -94 -82 0
-70 -81 3 0
43 -45 94 0
81 24 -2 0
6 -90 26 0
73 -63 92 0
-36 92 -60 0
-100 25 78 0
-31 -50 -72 0
30 -54 89 0
96 13 36 0
-57 90 18 0
-63 3 -48 0
-81 -22 -75 0
44 37 20 0
-70 -34 -82 0
-10 -41 25 0
-75 -42 33 0
68 -77 64 0
-14 26 -80 0
-85 -23 -45 0
56 -93 -11 0
-52 -36 68 0
92 85 75 0
78 69 79 0
-77 -75 -29 0
60 28 -42 0
74 -95 70 0
-75 -32 -12 0
86 -58 -12 0
15 81 -5 0
29 69 18 0
50 -37 4 0
24 71 39 0
57 -60 88 0
44 -89 48 0
