c Coffinhead hard-core n=100 seed=27 ratio=4.0
p cnf 100 400
-4 -60 -57 0
58 33 41 0
83 19 -55 0
71 -15 -5 0
52 4 -77 0
9 72 -55 0
100 -58 10 0
84 -72 2 0
-41 -36 -94 0
-82 92 -95 0
-36 68 -69 0
49 -6 -50 0
81 -67 58 0
-34 -52 19 0
-19 -74 45 0
90 -48 -69 0
-16 40 -3 0
58 -13 -50 0
-38 -56 -68 0
-51 -60 -79 0
-51 -100 -4 0
-18 40 -85 0
37 95 -27 0
9 -29 -65 0
-6 97 70 0
-62 25 46 0
19 -68 -34 0
30 -73 59 0
44 40 56 0
50 73 60 0
-78 99 67 0
7 -56 -95 0
-64 -13 14 0
8 35 78 0
67 -56 72 0
62 -72 -15 0
89 31 -59 0
-64 34 -83 0
5 -97 40 0
99 10 -87 0
88 33 30 0
91 -89 -43 0
23 -47 -78 0
-41 -57 -95 0
56 13 -64 0
55 17 -72 0
35 -2 97 0
-59 -61 -24 0
-60 -25 100 0
-12 20 70 0
-55 100 6 0
68 58 54 0
66 -5 -69 0
12 76 75 0
-84 71 55 0
63 -29 -88 0
1 70 -8 0
-20 34 30 0
-64 88 -22 0
-23 -33 -32 0
-10 -79 -32 0
77 64 -81 0
-55 -63 -75 0
-90 29 100 0
-33 -64 -69 0
-77 41 75 0
-52 -69 34 0
97 91 -53 0
9 36 90 0
-37 -27 -79 0
10 -60 24 0
4 21 -22 0
-61 -92 69 0
-75 67 -9 0
43 -36 -48 0
-59 20 -94 0
44 7 -46 0
43 51 -79 0
1 -28 -81 0
-20 65 -63 0
-79 14 44 0
-91 80 77 0
-66 -32 -84 0
-68 16 -2 0
49 31 6 0
-13 -76 2 0
97 45 -60 0
86 56 -90 0
-99 1 33 0
-13 -98 79 0
46 41 -12 0
-71 64 75 0
4 82 28 0
22 -8 -70 0
-88 -6 21 0
-6 31 -81 0
37 -54 -33 0
34 97 19 0
85 -8 -89 0
-26 -67 -53 0
97 -61 92 0
-100 13 98 0
-26 -53 -36 0
4 -77 99 0
72 -37 43 0
-14 -81 76 0
-90 -79 12 0
81 63 58 0
-35 85 -8 0
-51 -6 80 0
90 11 51 0
79 -10 -87 0
-79 32 21 0
23 37 21 0
-27 58 86 0
-16 39 -2 0
76 68 -34 0
-76 78 80 0
100 35 80 0
4 10 -36 0
93 -94 -28 0
-27 -42 -41 0
63 -22 -21 0
84 28 19 0
33 -5 9 0
13 26 89 0
-64 96 -29 0
86 -20 -81 0
51 95 -68 0
-28 -52 39 0
-11 -34 17 0
51 96 44 0
-13 -41 94 0
98 -63 -29 0
12 90 6 0
66 37 39 0
-87 73 -49 0
27 -33 -37 0
87 -92 39 0
-48 13 90 0
52 24 -25 0
41 -81 74 0
-8 -11 60 0
-8 69 57 0
59 -22 67 0
-43 73 12 0
58 34 -54 0
74 71 -25 0
28 -61 40 0
36 83 98 0
-94 75 -14 0
20 67 -24 0
-78 84 83 0
18 -42 -92 0
-17 96 81 0
39 -8 -24 0
5 -84 -37 0
-62 80 -29 0
-19 -27 -6 0
5 -97 83 0
-50 -66 55 0
99 -11 9 0
-40 -8 -39 0
-49 -36 -78 0
28 -41 45 0
14 65 -41 0
-83 45 76 0
31 39 33 0
-15 -11 -45 0
58 56 60 0
84 -77 95 0
5 67 90 0
-63 95 -43 0
-4 23 -16 0
75 81 13 0
16 4 -74 0
-67 -64 -37 0
-100 33 -94 0
-55 -10 40 0
83 -8 -22 0
19 74 -71 0
-24 60 -27 0
28 -6 93 0
97 47 -40 0
-49 10 16 0
76 -16 98 0
-8 39 -71 0
43 -83 -50 0
26 7 -57 0
61 22 48 0
75 -72 6 0
-77 -60 -32 0
-34 -48 -79 0
100 14 -42 0
35 -76 27 0
-77 -28 -8 0
19 -75 79 0
87 15 65 0
95 -17 -5 0
-36 -13 -45 0
-28 97 -80 0
21 -90 49 0
22 -15 73 0
-63 32 62 0
-53 40 8 0
57 -18 61 0
-70 44 -88 0
-17 78 82 0
-100 39 60 0
87 -29 78 0
37 -75 48 0
74 -4 -33 0
84 18 11 0
-15 -47 -48 0
98 71 28 0
-72 -6 -86 0
67 -32 95 0
-71 45 86 0
-36 2 -56 0
87 -75 -36 0
-55 69 85 0
-88 7 25 0
-37 -23 -95 0
-32 -25 -71 0
-48 74 79 0
-41 -57 28 0
-52 -57 51 0
37 16 -7 0
2 -29 -99 0
49 74 5 0
-65 82 78 0
69 -45 77 0
22 -67 -54 0
-26 100 52 0
-15 -47 97 0
-56 -57 -86 0
82 56 66 0
-52 -34 -97 0
22 72 50 0
35 88 75 0
-18 -1 16 0
-72 -20 -28 0
68 58 -24 0
98 -57 -79 0
3 54 12 0
81 25 9 0
-14 -58 74 0
-98 -88 67 0
-25 -90 8 0
7 84 -3 0
48 -58 7 0
-56 -87 -39 0
46 62 28 0
-55 26 -91 0
48 -85 52 0
70 88 91 0
-46 11 84 0
-97 -76 1 0
-31 76 -39 0
84 -21 -79 0
-74 -52 99 0
91 -45 -44 0
-88 38 -31 0
-71 35 29 0
39 31 72 0
-98 -99 3 0
3 -37 -74 0
29 -15 -88 0
-69 -44 68 0
-55 35 99 0
9 -86 50 0
-73 -98 -12 0
49 -64 53 0
37 -31 -41 0
70 60 86 0
-52 -55 -94 0
-37 -95 -83 0
-33 -48 -5 0
65 -7 -51 0
44 32 -38 0
61 35 -38 0
-12 -24 63 0
-26 -87 30 0
-9 -18 29 0
-10 65 48 0
-63 47 -25 0
-79 -23 -52 0
43 -27 49 0
-85 90 -63 0
-4 43 100 0
-7 -37 21 0
-18 -54 -75 0
57 28 73 0
28 39 -82 0
32 84 90 0
-16 -13 -95 0
57 49 -81 0
-38 -84 11 0
-83 4 -82 0
-33 50 29 0
23 59 -68 0
-82 -56 34 0
-33 35 -97 0
-92 -83 19 0
51 -89 -14 0
55 48 -2 0
40 -75 -38 0
-8 74 36 0
-60 -50 -82 0
65 -70 83 0
37 63 -65 0
22 38 94 0
-25 62 31 0
-74 -21 -7 0
-39 -81 -11 0
70 67 44 0
-5 -71 -4 0
13 -28 -89 0
-41 -68 -27 0
71 56 53 0
-30 -9 100 0
96 10 -1 0
-38 -28 39 0
-19 94 16 0
6 11 -65 0
-93 34 -17 0
-10 -12 21 0
-33 -4 -41 0
-34 64 -35 0
4 46 5 0
41 78 21 0
47 26 33 0
69 10 12 0
40 61 -72 0
51 -3 -82 0
53 16 3 0
-23 1 57 0
-13 -62 -34 0
-32 54 40 0
19 -11 -12 0
-37 8 72 0
20 27 42 0
-5 -16 32 0
-50 -12 -23 0
81 63 -27 0
-94 41 76 0
-96 -68 17 0
40 -67 65 0
-18 99 -90 0
33 -91 98 0
-40 -14 81 0
25 -78 8 0
-75 68 40 0
-66 -63 26 0
44 5 -19 0
98 83 -61 0
81 4 42 0
-63 -15 -68 0
71 37 -90 0
-74 12 68 0
-40 83 -38 0
-75 24 -28 0
-65 1 18 0
51 -35 37 0
12 60 -56 0
76 -57 100 0
-55 -54 -7 0
98 60 -41 0
-70 -92 58 0
-52 36 -16 0
-77 81 82 0
-62 -47 -67 0
-69 17 68 0
83 42 -92 0
-34 -89 -91 0
56 71 73 0
50 -49 21 0
-18 -1 58 0
-21 63 38 0
-36 93 88 0
16 19 76 0
76 -46 8 0
-48 -80 96 0
94 -97 55 0
70 18 -45 0
33 44 -23 0
41 43 6 0
-26 99 -21 0
15 -38 60 0
-25 -87 -21 0
-21 -8 -55 0
45 74 -38 0
50 78 -76 0
51 56 -9 0
48 5 -87 0
-9 -29 -64 0
-75 -51 13 0
38 51 54 0
26 57 -54 0
8 5 42 0
