c Coffinhead hard-core n=100 seed=31 ratio=4.0
p cnf 100 400
-48 -68 46 0
-91 17 -73 0
-33 65 -30 0
-7 -8 25 0
3 37 -22 0
-14 -100 1 0
-48 41 58 0
-28 14 40 0
18 67 52 0
-24 -89 -100 0
-99 -41 13 0
-70 33 59 0
20 -18 91 0
-48 61 8 0
-35 -76 88 0
-3 -37 68 0
79 -22 27 0
68 -16 31 0
72 -87 20 0
-86 -1 -8 0
44 -100 48 0
-54 94 -87 0
-79 -15 23 0
13 91 -34 0
-85 60 14 0
58 51 -63 0
-66 -33 77 0
74 -18 42 0
-17 -13 88 0
-77 9 -63 0
-4 22 -80 0
-53 -72 -38 0
19 -97 -11 0
98 -39 87 0
77 -11 76 0
-34 -42 2 0
79 11 77 0
-82 -89 -78 0
63 -85 24 0
-71 97 3 0
-51 -40 -26 0
-91 -64 -9 0
-51 -26 -46 0
76 55 -79 0
-60 -65 93 0
-76 35 -74 0
71 13 -36 0
98 8 31 0
-14 -62 91 0
12 13 55 0
10 62 5 0
84 95 87 0
50 53 55 0
41 71 29 0
-18 9 68 0
34 60 -75 0
-42 -29 -37 0
37 -75 -11 0
90 -28 -97 0
-84 -18 38 0
-15 -87 24 0
-87 -9 -23 0
-88 -42 31 0
4 -3 51 0
67 -62 58 0
-27 83 63 0
100 -5 61 0
-81 -74 -32 0
45 -63 -39 0
3 64 98 0
-25 -15 -52 0
88 26 86 0
91 -99 78 0
68 -32 55 0
95 -67 2 0
-93 2 -47 0
84 -42 -8 0
-26 28 98 0
26 77 36 0
-62 100 12 0
-99 -70 -16 0
-15 -57 -2 0
96 55 -40 0
51 59 -43 0
38 -64 18 0
-58 -21 48 0
95 76 41 0
-76 -66 88 0
-81 12 -96 0
-64 -79 34 0
-77 -80 99 0
42 4 21 0
89 -76 59 0
-29 -91 49 0
-46 93 40 0
-44 24 -99 0
-99 57 -79 0
71 75 -19 0
71 72 -19 0
-14 -44 13 0
-46 50 13 0
62 87 -36 0
-39 -64 -72 0
98 9 -3 0
2 -38 -63 0
95 -39 -52 0
-1 -77 47 0
25 -3 96 0
-78 8 -10 0
-46 -34 28 0
-79 46 82 0
65 37 6 0
90 -100 41 0
39 -31 -35 0
-45 -19 -53 0
-78 -73 -95 0
-10 -83 -57 0
-25 32 -9 0
86 -25 78 0
99 -50 -44 0
-48 -39 -66 0
32 56 14 0
-3 63 27 0
-78 -11 36 0
-85 20 23 0
-97 -84 71 0
95 -77 15 0
73 -61 -98 0
67 -36 -17 0
-24 89 -74 0
53 10 -76 0
36 87 -60 0
-63 34 45 0
76 72 73 0
64 92 31 0
8 -49 -84 0
56 59 52 0
88 2 18 0
-14 -52 13 0
-16 -89 17 0
-71 35 3 0
-10 -1 -42 0
4 -77 -51 0
62 -36 13 0
-29 -90 21 0
77 -62 46 0
-64 35 -24 0
-15 25 23 0
-45 12 -9 0
4 -33 -12 0
-15 -42 96 0
-23 61 -90 0
-33 -95 -3 0
-50 -40 5 0
-30 -39 -92 0
-79 4 -44 0
-32 65 50 0
96 1 -16 0
-42 -89 -23 0
74 -1 77 0
65 -70 -46 0
19 69 -8 0
91 19 -45 0
-8 68 3 0
-95 65 -35 0
98 25 -95 0
71 82 -89 0
-5 -9 96 0
-27 -78 -93 0
-68 -48 16 0
-21 87 -42 0
-91 83 42 0
93 -50 -49 0
34 24 -21 0
9 -18 12 0
-95 -66 -25 0
-45 81 -50 0
56 -59 80 0
-17 2 46 0
-41 -39 42 0
-69 50 -16 0
21 62 -69 0
-47 -48 -95 0
56 20 75 0
-51 77 -53 0
73 57 98 0
-20 28 38 0
56 -15 20 0
-25 21 72 0
76 72 71 0
-64 -37 -18 0
-44 -57 7 0
-26 -72 61 0
-89 -18 71 0
-17 69 -99 0
-8 -37 -25 0
34 -32 92 0
-17 -3 84 0
67 60 -26 0
82 -32 84 0
76 74 -97 0
44 17 61 0
4 -22 -97 0
-7 -68 -65 0
73 34 82 0
-80 70 -71 0
-95 -26 -80 0
-73 -5 40 0
-95 87 9 0
11 2 -21 0
56 36 -44 0
-8 -88 -85 0
-63 -42 -15 0
-13 -31 -37 0
-10 54 -64 0
80 -94 24 0
-19 -54 86 0
-57 -91 76 0
-74 34 -68 0
72 100 -52 0
14 75 -41 0
64 93 -35 0
-4 -52 98 0
-21 46 47 0
-70 88 91 0
-85 5 -55 0
-53 -41 -62 0
-29 -12 -41 0
16 42 -33 0
28 -31 9 0
-67 69 -87 0
-75 -24 5 0
-38 -14 72 0
32 -26 -1 0
-48 54 63 0
-71 -91 -6 0
40 -61 -79 0
1 24 -5 0
-23 -19 -33 0
-8 88 -75 0
96 -36 68 0
-25 78 58 0
64 -33 4 0
-81 -54 58 0
-94 93 34 0
-42 -44 -92 0
94 -74 -49 0
-100 -77 -9 0
-44 85 -25 0
-37 83 69 0
76 79 -25 0
64 -40 -73 0
-50 86 9 0
-59 -15 -14 0
-91 86 -21 0
-54 -8 68 0
-65 13 -82 0
-44 -20 82 0
46 75 29 0
47 93 -91 0
5 63 -96 0
-92 -47 -39 0
-90 34 43 0
-88 96 77 0
62 -82 -39 0
73 -61 -69 0
52 67 -66 0
-17 25 -77 0
-85 57 25 0
-49 62 -80 0
33 39 81 0
71 74 76 0
-6 51 85 0
-70 -98 -54 0
29 -80 36 0
81 27 1 0
51 95 87 0
60 49 -22 0
-28 -31 99 0
-99 -42 92 0
73 44 97 0
48 18 -16 0
56 -92 -45 0
-1 27 84 0
9 42 -60 0
-90 -43 40 0
-89 -67 40 0
51 7 -14 0
-89 -66 -19 0
67 64 -3 0
17 4 -36 0
-79 -7 18 0
-75 -15 21 0
-6 -40 -74 0
-5 59 42 0
66 -33 51 0
-52 38 77 0
43 -56 -57 0
9 73 10 0
83 -99 62 0
-99 9 13 0
-45 46 -17 0
-65 54 10 0
-16 23 25 0
-94 -90 45 0
-77 30 -60 0
-78 62 -38 0
95 -39 58 0
-71 14 23 0
-52 -86 23 0
-19 -31 35 0
-48 -44 53 0
90 -14 52 0
36 39 93 0
6 -69 -50 0
85 100 67 0
-86 76 -40 0
91 -92 99 0
70 -24 -65 0
-43 74 58 0
96 63 36 0
-8 -50 -45 0
5 -48 -72 0
85 31 18 0
-71 -7 8 0
-15 71 16 0
-83 80 -47 0
-91 62 10 0
72 -22 -52 0
100 -64 -55 0
-66 59 45 0
-60 -6 69 0
-53 -62 29 0
-36 -41 -25 0
-15 -10 -79 0
83 -71 57 0
15 -54 25 0
-61 -74 51 0
43 -47 -35 0
78 6 -48 0
-59 -72 43 0
77 5 -56 0
-46 -88 21 0
2 10 -31 0
-84 95 -71 0
-24 -54 -76 0
10 40 -4 0
-40 79 85 0
34 11 41 0
-93 54 66 0
50 -36 -17 0
-31 -17 -58 0
-100 15 43 0
13 48 -79 0
4 13 -96 0
-36 77 -87 0
-51 -41 4 0
-21 30 11 0
-76 -69 28 0
-39 68 32 0
16 14 -93 0
-97 -91 27 0
78 53 51 0
40 -95 50 0
-36 -52 -75 0
-91 -30 -36 0
59 -63 32 0
-42 35 -10 0
88 15 -5 0
12 -41 -10 0
19 33 -73 0
-80 15 25 0
-96 -73 17 0
85 55 7 0
-40 -43 -21 0
67 24 -19 0
-86 64 57 0
62 54 -67 0
-33 -48 -50 0
55 -96 84 0
-68 9 72 0
-1 76 51 0
24 46 -76 0
-41 -84 52 0
48 -35 31 0
3 79 -97 0
11 -7 49 0
-64 -23 7 0
95 -35 -57 0
-80 -69 -27 0
62 -69 -9 0
90 -1 93 0
2 38 -76 0
-45 -87 89 0
51 -37 71 0
82 61 68 0
60 -38 -80 0
72 53 -62 0
-58 -90 -29 0
22 66 28 0
