c Coffinhead hard-core n=100 seed=16 ratio=4.0
p cnf 100 400
-77 85 18 0
-94 -47 -25 0
-42 -54 18 0
-95 -83 58 0
-61 -16 -98 0
-28 -10 84 0
-29 6 -55 0
-72 97 -99 0
-40 -65 62 0
14 -18 -90 0
33 47 -24 0
-38 -13 54 0
-92 57 -68 0
-53 90 6 0
-61 94 -92 0
34 74 -58 0
-73 -96 50 0
90 -68 -78 0
60 -84 -23 0
-5 60 96 0
13 11 76 0
21 -15 8 0
-5 63 -8 0
66 -18 -56 0
-40 70 -76 0
44 -67 -11 0
70 59 31 0
-36 31 68 0
-21 -6 -9 0
97 81 41 0
89 32 -29 0
-83 -36 61 0
-44 16 -11 0
-45 -91 1 0
-48 60 -22 0
14 -94 -11 0
-73 -41 68 0
-50 24 -32 0
11 79 -98 0
72 59 -70 0
-59 -84 35 0
-46 -13 55 0
27 34 68 0
-81 14 -58 0
3 73 -12 0
41 -15 48 0
51 63 77 0
-97 -55 -62 0
62 41 -15 0
-3 -91 77 0
76 18 24 0
69 -72 19 0
30 -26 64 0
85 -50 -23 0
28 -15 100 0
-82 -18 -56 0
-87 -36 -54 0
-65 -64 11 0
-4 -62 -3 0
-39 -19 33 0
-99 -63 90 0
81 65 36 0
-10 -35 77 0
-58 -4 66 0
-59 38 99 0
65 44 -69 0
90 4 39 0
-17 -80 87 0
13 -33 -17 0
56 -51 -72 0
11 -87 -91 0
16 -12 64 0
-28 -22 21 0
5 69 100 0
-65 42 95 0
26 38 6 0
-41 -78 29 0
26 -93 -58 0
-32 -47 -54 0
22 34 -73 0
-21 80 45 0
95 68 -86 0
-84 -19 -12 0
-47 -48 -97 0
6 -71 -59 0
-58 -67 -53 0
32 21 91 0
-54 27 -56 0
51 78 -11 0
23 93 7 0
26 -81 -17 0
94 37 -48 0
65 -71 -17 0
-84 -30 23 0
13 82 37 0
11 -83 16 0
92 3 -17 0
39 -35 34 0
-29 83 93 0
-90 29 58 0
-74 90 55 0
83 -43 47 0
62 -100 -1 0
-34 58 -83 0
-26 92 60 0
-39 75 80 0
89 39 1 0
99 60 -46 0
-41 81 -46 0
-1 -76 83 0
-59 -20 -89 0
2 -80 -79 0
86 100 -74 0
-59 -96 56 0
-95 20 1 0
-7 -16 83 0
-27 1 94 0
-21 -54 30 0
45 -100 28 0
73 -39 -97 0
28 40 -22 0
94 62 -36 0
99 51 -73 0
71 -5 -91 0
-12 -32 18 0
-37 52 16 0
43 -62 4 0
-40 51 -74 0
-69 33 -3 0
53 -40 -79 0
-96 98 50 0
5 70 76 0
46 -67 -33 0
-41 -24 -76 0
-30 60 -67 0
-12 53 -100 0
-60 -23 61 0
22 -83 31 0
11 -37 -74 0
-24 -11 73 0
92 100 69 0
-80 -90 -74 0
-94 14 45 0
-66 -33 -45 0
-72 -42 -98 0
-89 -9 98 0
7 -13 18 0
57 -23 -20 0
-40 -78 93 0
-78 18 23 0
93 26 -100 0
13 76 -35 0
39 -56 61 0
-39 93 -92 0
-53 54 3 0
35 -86 45 0
6 27 34 0
70 10 -77 0
79 -3 67 0
-24 -52 -67 0
48 78 -8 0
-49 -21 43 0
76 -14 6 0
30 -77 38 0
-55 -43 -36 0
-11 -13 58 0
-58 13 -17 0
-56 -65 -48 0
18 43 -100 0
-90 -43 33 0
26 37 -56 0
-37 -20 -33 0
92 82 -33 0
-38 73 -95 0
-43 83 -35 0
82 64 -33 0
55 -74 -83 0
65 12 46 0
28 80 63 0
27 -11 93 0
17 -76 -46 0
61 100 15 0
-90 95 97 0
79 -92 -32 0
-95 91 -58 0
-2 -21 -82 0
-80 -5 -13 0
88 -42 66 0
-34 -57 28 0
5 1 52 0
52 -39 -17 0
46 -44 78 0
-10 -87 -59 0
45 -77 93 0
-95 -16 -49 0
-26 70 58 0
16 -95 62 0
2 80 26 0
47 9 1 0
-48 38 -80 0
-75 18 68 0
39 -68 28 0
36 -4 -67 0
-74 -84 -92 0
78 -94 77 0
57 -63 9 0
-75 -3 -65 0
-70 -83 10 0
-99 -72 4 0
-92 -6 -31 0
3 -79 39 0
-1 11 9 0
-41 48 -92 0
-72 -95 -17 0
36 -32 51 0
-14 -72 69 0
82 83 6 0
96 -74 -16 0
-80 -100 47 0
-89 -43 -28 0
-44 80 100 0
-69 -41 -15 0
26 -30 -18 0
7 -46 68 0
100 -88 75 0
31 -90 68 0
44 89 -79 0
-19 15 41 0
55 73 16 0
-46 37 78 0
94 -83 13 0
-80 -72 -40 0
-41 79 24 0
13 -18 -10 0
-37 68 23 0
-91 -52 -26 0
92 85 -27 0
35 -65 -34 0
-84 -78 56 0
-90 12 84 0
-54 69 21 0
-39 47 24 0
-6 -27 90 0
-44 -27 -32 0
88 27 89 0
-27 19 -49 0
-81 21 8 0
55 -13 39 0
95 37 -91 0
-56 35 15 0
35 -81 31 0
77 22 47 0
14 56 27 0
-16 28 86 0
65 -78 -22 0
-9 76 -30 0
-53 97 45 0
-97 92 -52 0
-81 64 -67 0
65 78 80 0
-23 -59 -7 0
-62 85 -61 0
-47 5 -91 0
-24 -91 -15 0
97 -45 -90 0
-21 96 -53 0
49 -44 -51 0
-2 -60 -68 0
-91 -13 -89 0
-5 -18 -100 0
-4 44 84 0
-46 18 99 0
-24 48 -65 0
-54 27 -34 0
33 -32 39 0
87 -9 11 0
-66 54 -53 0
-8 -85 3 0
-67 46 -80 0
4 -52 88 0
-51 -57 -81 0
74 27 44 0
-14 -33 90 0
-61 21 -39 0
48 -15 -10 0
-94 43 -83 0
-25 -6 -3 0
53 -16 8 0
-47 -44 90 0
-96 44 -53 0
77 -7 -10 0
-39 61 24 0
49 -70 99 0
58 41 69 0
57 -26 -17 0
-83 99 -50 0
60 -74 98 0
-49 -41 -91 0
-10 -50 36 0
33 79 36 0
-64 55 40 0
-24 79 -80 0
4 -66 67 0
98 -94 72 0
88 44 -71 0
-73 -90 -29 0
-13 15 22 0
62 98 28 0
-59 33 94 0
-74 80 -53 0
29 46 -12 0
94 42 -7 0
59 34 -25 0
16 -99 53 0
-97 -3 32 0
31 -25 -57 0
-15 -43 -34 0
72 -7 89 0
61 67 40 0
-84 -40 83 0
95 -78 -48 0
95 -82 58 0
-49 -20 62 0
63 9 -47 0
14 62 -73 0
63 5 -65 0
82 73 -68 0
-42 -63 64 0
42 79 61 0
-77 -35 98 0
-90 -98 58 0
-30 8 -39 0
71 88 63 0
-31 72 -15 0
-71 -30 1 0
-5 93 8 0
-39 -60 63 0
-20 -48 63 0
28 77 94 0
-22 27 67 0
-43 63 -67 0
74 -70 -79 0
-85 -9 -30 0
-38 26 -67 0
-65 72 -71 0
-26 -97 66 0
-81 88 10 0
-69 -74 43 0
98 -79 65 0
-71 -2 -49 0
24 -94 69 0
-3 26 -57 0
47 -17 60 0
45 8 83 0
4 11 -95 0
-28 6 -93 0
-52 92 36 0
-94 52 92 0
7 -29 71 0
76 9 -68 0
-33 69 64 0
-24 35 -33 0
1 -28 48 0
57 -26 -63 0
-60 68 34 0
91 16 -44 0
30 -39 -37 0
-19 -24 -81 0
99 -43 -26 0
8 -43 -71 0
2 -30 5 0
88 96 -11 0
-50 24 -49 0
-4 75 78 0
-94 71 -67 0
-96 35 -48 0
75 -23 100 0
16 -86 73 0
59 -56 -58 0
-19 10 -26 0
-48 -53 -18 0
-99 -97 67 0
-25 -81 -3 0
-53 -72 95 0
90 21 -50 0
99 18 -80 0
63 -89 15 0
26 69 -33 0
97 -41 -78 0
11 54 -72 0
81 -82 62 0
72 -80 64 0
-84 56 -25 0
-41 26 -29 0
61 40 88 0
-28 -76 53 0
-30 -66 69 0
68 -64 -25 0
-88 -43 -20 0
-32 -87 -35 0
