c Coffinhead hard-core n=100 seed=7 ratio=4.0
p cnf 100 400
-28 44 51 0
-66 92 -34 0
93 -39 -90 0
18 -40 -35 0
-4 30 -28 0
74 -13 -32 0
-99 -2 71 0
-82 30 -83 0
-59 67 80 0
-54 41 -65 0
25 94 42 0
45 21 -36 0
6 27 61 0
46 -1 39 0
-76 19 53 0
-83 -93 63 0
-9 5 -50 0
-82 3 6 0
-95 -34 -32 0
-70 -23 53 0
-61 95 -86 0
-64 -23 30 0
42 100 4 0
-20 14 8 0
23 -55 -64 0
-98 -91 68 0
-50 27 -67 0
-31 71 -72 0
-91 18 22 0
-12 91 -29 0
97 -49 -83 0
9 43 -92 0
37 -29 -59 0
19 -80 38 0
97 91 -68 0
-40 24 13 0
-31 -14 87 0
28 50 9 0
39 22 72 0
-92 -81 4 0
96 -39 -72 0
-56 70 98 0
-54 36 -78 0
-10 20 -79 0
13 -23 -90 0
57 63 34 0
43 -32 -10 0
-72 -46 13 0
73 61 -34 0
-69 12 56 0
76 -42 -15 0
-84 -34 -25 0
90 -68 71 0
-55 -8 -16 0
53 89 -12 0
-22 2 -87 0
-17 53 -51 0
76 -63 81 0
-14 -89 70 0
-72 61 32 0
57 90 71 0
-74 41 -27 0
-86 33 98 0
-26 -5 -28 0
-92 -82 22 0
-15 75 -90 0
-57 -48 -19 0
52 27 98 0
-16 -94 99 0
45 13 -9 0
17 98 -66 0
23 18 -51 0
15 -89 -27 0
89 99 82 0
-80 -43 -67 0
8 72 -19 0
-91 51 -1 0
-34 64 2 0
16 2 -77 0
-30 -69 61 0
4 -84 -76 0
58 -31 -73 0
-1 40 -89 0
21 3 10 0
-58 -92 -43 0
60 38 51 0
-73 1 -24 0
-2 -86 11 0
30 86 63 0
-67 6 -97 0
-70 8 53 0
90 -88 20 0
-94 5 14 0
-99 -89 -34 0
92 -10 -85 0
-33 -98 -46 0
88 -62 94 0
-49 33 -3 0
-42 15 9 0
-42 46 12 0
40 72 -65 0
-38 -82 -60 0
43 84 18 0
-79 -53 -59 0
2 -79 77 0
-21 -78 40 0
-87 81 -95 0
54 -15 52 0
73 10 59 0
-49 -3 43 0
74 -67 -79 0
-22 47 87 0
-23 -51 -40 0
-15 39 -4 0
-46 63 26 0
-80 -34 52 0
-37 -64 18 0
2 -32 -4 0
-75 22 -9 0
-90 75 51 0
-52 -8 97 0
-43 -40 51 0
89 -52 -5 0
-25 96 10 0
45 19 -76 0
77 -57 40 0
-71 61 -40 0
-61 62 72 0
-9 -15 -52 0
71 19 32 0
-19 -84 6 0
86 -61 -83 0
-96 -10 -20 0
-99 -77 83 0
-55 -44 -3 0
8 85 68 0
56 14 57 0
-26 -68 6 0
-69 -33 -27 0
-11 7 51 0
57 88 9 0
84 39 -96 0
38 -10 91 0
-47 49 -74 0
67 86 56 0
-35 78 45 0
-15 -34 -11 0
4 38 43 0
93 35 22 0
-56 78 23 0
-12 28 -68 0
-28 18 65 0
54 -41 43 0
16 24 46 0
-91 -66 -24 0
44 26 -25 0
-25 48 13 0
-52 -40 -41 0
9 32 -81 0
-83 76 78 0
-67 -89 -64 0
49 -54 -18 0
-14 95 55 0
53 14 -65 0
69 32 -91 0
-83 49 78 0
-17 -24 81 0
49 -14 -50 0
57 86 84 0
61 13 80 0
-19 -52 -30 0
-86 72 -10 0
-15 -95 85 0
-83 -77 87 0
-96 -17 48 0
14 41 55 0
-36 18 -75 0
42 -21 -34 0
-55 51 16 0
70 24 29 0
56 74 -31 0
28 93 31 0
-56 -58 -1 0
-95 -80 6 0
29 -19 57 0
-93 -35 -84 0
2 -63 71 0
-98 -17 -77 0
-71 29 -76 0
-56 36 57 0
84 57 -37 0
26 -93 -42 0
30 -66 84 0
-61 3 83 0
31 38 -32 0
87 55 37 0
-87 -96 53 0
-45 -82 -74 0
12 -36 -54 0
95 82 16 0
4 18 -45 0
-42 -66 -88 0
-16 38 71 0
1 84 15 0
-55 23 -51 0
-18 28 -41 0
31 -70 58 0
7 83 11 0
-80 69 42 0
-48 89 -57 0
-20 -85 34 0
56 -88 -40 0
49 -38 47 0
4 -60 26 0
14 -65 70 0
-76 72 21 0
73 49 -66 0
25 31 -73 0
-89 9 -39 0
-73 28 59 0
-7 -25 3 0
1 82 7 0
79 31 -30 0
5 47 -75 0
16 -28 -43 0
-7 18 29 0
44 -61 37 0
-22 46 63 0
-27 -77 -25 0
-99 -83 -36 0
39 41 51 0
1 50 99 0
-87 -42 2 0
-40 90 76 0
81 -3 44 0
-94 1 21 0
-20 -76 73 0
-84 41 -87 0
88 -49 -35 0
-15 -56 -22 0
-15 -49 -27 0
21 -6 19 0
-58 -61 9 0
21 26 44 0
-67 66 4 0
-46 90 -51 0
8 91 51 0
8 100 9 0
-60 -64 27 0
-28 -71 -93 0
-7 100 -80 0
16 -53 -98 0
-65 15 67 0
-44 -70 -21 0
22 30 95 0
-53 -65 39 0
-93 41 -12 0
-47 96 44 0
35 -19 36 0
66 10 73 0
-27 85 81 0
-23 -68 74 0
-63 8 -25 0
61 -62 12 0
-33 98 34 0
71 31 76 0
67 -62 -48 0
93 -26 28 0
-70 -32 53 0
-92 93 -23 0
95 23 -30 0
73 -67 -4 0
88 90 17 0
-38 93 47 0
-54 -83 -33 0
36 -50 25 0
15 -99 23 0
-84 -59 -15 0
-27 -89 -3 0
92 85 73 0
94 -12 -28 0
42 -61 91 0
16 27 100 0
-16 -92 30 0
70 5 51 0
-16 11 -87 0
35 -42 -69 0
94 70 -35 0
-39 -77 -96 0
-49 53 -85 0
-6 64 48 0
21 -24 37 0
6 -12 -46 0
2 -25 39 0
44 55 -89 0
-71 -87 -16 0
6 -76 -25 0
33 -24 -2 0
98 100 22 0
-28 1 -84 0
-20 -97 67 0
6 42 -41 0
59 10 -31 0
-85 -49 90 0
86 -91 26 0
-58 -6 85 0
-7 -64 -62 0
66 99 44 0
80 3 74 0
-80 -10 -91 0
-45 60 76 0
32 -19 -79 0
78 -90 -63 0
97 82 -36 0
-73 30 -87 0
-73 -85 -18 0
-88 32 34 0
13 -77 -51 0
42 -22 79 0
12 -47 -46 0
57 44 39 0
13 10 -50 0
-70 -14 95 0
-45 86 39 0
-31 17 -9 0
10 -63 42 0
-36 -95 -52 0
-55 -36 -20 0
-6 -68 48 0
95 -25 57 0
97 -49 -8 0
24 54 -63 0
99 81 -12 0
35 97 -58 0
-80 -52 44 0
6 -52 -55 0
-28 58 -21 0
2 82 -5 0
8 64 5 0
88 -19 6 0
26 51 12 0
59 -50 60 0
-11 75 39 0
90 66 55 0
-90 -39 44 0
20 -17 36 0
-61 84 25 0
74 -16 82 0
-31 -49 -34 0
-48 -26 -33 0
33 -17 -95 0
-52 -32 -65 0
25 -64 -76 0
-100 67 78 0
9 10 -39 0
-5 93 12 0
61 -94 -40 0
-21 49 -52 0
53 -58 -77 0
-10 35 85 0
-34 64 -63 0
12 -67 -16 0
69 16 2 0
43 -41 -64 0
-38 -15 1 0
80 9 -49 0
50 35 58 0
44 -57 77 0
53 37 64 0
-19 -100 -4 0
10 -6 -77 0
86 -42 21 0
-88 4 -6 0
19 47 -61 0
-19 -11 59 0
52 59 -77 0
-4 33 -17 0
26 68 -63 0
-50 54 -45 0
-18 8 -78 0
78 33 18 0
45 12 83 0
-75 -38 -36 0
-22 -69 62 0
61 -21 66 0
-56 -92 26 0
-36 -34 68 0
31 -7 60 0
-25 22 -34 0
54 41 84 0
-58 -15 -31 0
42 95 -86 0
-71 -100 -52 0
10 93 36 0
-34 -72 -8 0
66 -77 99 0
21 -31 -53 0
-44 -14 -31 0
2 89 20 0
90 -65 56 0
