c Coffinhead hard-core n=100 seed=13 ratio=4.0
p cnf 100 400
94 22 75 0
-45 -63 -90 0
62 -46 -60 0
-51 48 -34 0
95 69 -9 0
-19 95 -61 0
44 -59 91 0
19 -16 28 0
-47 79 55 0
-74 40 -65 0
-20 81 -95 0
79 -48 20 0
9 -88 72 0
-19 64 -68 0
31 -81 39 0
90 15 70 0
-32 -80 4 0
-21 -54 -14 0
63 -25 6 0
-23 -78 5 0
32 93 15 0
45 -25 41 0
37 -66 -86 0
78 3 -74 0
43 -38 -73 0
-31 -73 -15 0
59 22 66 0
9 33 -11 0
-41 38 27 0
11 -98 -17 0
4 -55 54 0
-73 90 -23 0
-73 71 -96 0
12 -43 15 0
-48 18 -29 0
-22 -98 33 0
17 -14 -74 0
41 40 34 0
-98 -34 -88 0
56 31 -34 0
-13 -47 -68 0
-45 26 12 0
-43 -39 91 0
28 37 46 0
-21 -49 -61 0
75 -48 -35 0
31 -18 -93 0
-12 -54 27 0
-38 50 100 0
42 19 -25 0
92 -5 50 0
-22 56 53 0
-5 63 -31 0
-41 21 -99 0
4 -8 -69 0
-56 40 51 0
-34 -10 -64 0
-32 -80 -3 0
93 -49 65 0
-97 -16 -93 0
52 24 69 0
38 -1 73 0
60 52 -18 0
61 24 16 0
89 76 41 0
-77 81 -100 0
-66 -59 98 0
41 7 3 0
7 51 65 0
87 45 -80 0
89 32 -23 0
35 -11 -7 0
-84 44 36 0
10 -70 63 0
20 7 -28 0
-74 38 -75 0
-57 18 65 0
-9 -38 -42 0
30 -54 27 0
-72 -91 -87 0
66 53 100 0
-56 -12 72 0
70 94 -15 0
68 -73 56 0
85 -27 84 0
19 58 -91 0
68 -84 -58 0
-32 -8 -26 0
47 36 23 0
48 84 9 0
20 -50 99 0
84 -100 -75 0
-88 37 -23 0
-73 -74 2 0
-32 65 -37 0
62 -36 -77 0
-87 -70 39 0
30 -1 -95 0
-43 -13 -12 0
-1 -16 -85 0
-57 -29 -69 0
-50 -41 -8 0
94 -12 50 0
35 69 -86 0
4 -54 -88 0
-45 -4 -14 0
98 -47 -74 0
100 -85 -80 0
97 -78 34 0
22 31 -66 0
36 -87 73 0
45 37 -2 0
-45 83 100 0
-68 90 35 0
-49 -25 52 0
-98 -90 -14 0
58 5 70 0
-18 -59 78 0
-39 -15 -98 0
-89 -98 -63 0
10 24 -54 0
-63 -90 32 0
37 -50 -97 0
-35 30 51 0
-65 4 53 0
67 -42 -71 0
95 48 46 0
-32 22 59 0
-76 -47 50 0
-37 17 -96 0
87 -20 12 0
-21 -74 -32 0
41 -65 90 0
-2 -59 75 0
-41 63 -89 0
70 10 -34 0
-19 -24 95 0
-77 79 53 0
72 13 58 0
-65 -98 -32 0
-42 13 -6 0
31 -45 -51 0
56 76 -9 0
41 71 11 0
91 -26 -92 0
-53 35 -49 0
14 76 -20 0
-34 -88 30 0
-2 92 100 0
30 -27 -40 0
-99 -31 -97 0
-50 30 -32 0
-64 5 -19 0
-52 -29 66 0
-23 -59 -34 0
61 -5 -37 0
-4 40 -24 0
-22 56 -69 0
-13 -63 -19 0
-81 35 9 0
-34 -90 30 0
70 -59 50 0
-32 89 16 0
-77 79 -66 0
-36 -12 33 0
3 -69 -32 0
-28 47 -62 0
-19 -42 24 0
-49 -97 17 0
-78 39 71 0
-25 69 -21 0
31 7 50 0
67 -72 93 0
90 55 -4 0
-73 -7 -60 0
-86 32 89 0
63 -6 -12 0
49 19 -48 0
-25 7 15 0
31 -94 -17 0
63 28 54 0
-12 -95 26 0
-11 91 70 0
40 -85 -21 0
38 -80 -98 0
-12 -27 39 0
-90 -42 -33 0
-68 -6 61 0
-78 -59 -46 0
-13 39 79 0
-78 -35 -74 0
-89 -45 -22 0
61 -2 -55 0
-25 20 56 0
32 -97 -87 0
-7 -90 64 0
-31 4 -66 0
-17 44 94 0
-51 66 27 0
86 -14 -61 0
67 81 -100 0
-8 76 82 0
8 78 -29 0
49 3 -32 0
64 81 93 0
88 12 -58 0
34 -18 -69 0
92 -57 48 0
29 -32 22 0
28 53 -84 0
62 -92 -32 0
-75 -70 -14 0
-3 -12 40 0
53 -86 -34 0
-3 31 -86 0
80 61 89 0
-84 -91 -68 0
-4 -29 -19 0
29 92 12 0
-45 7 -14 0
-37 -71 14 0
93 62 -78 0
22 39 -61 0
36 -22 87 0
-55 65 -6 0
-40 -23 67 0
53 -47 -38 0
-90 -31 -42 0
72 18 -90 0
-100 61 27 0
65 34 -76 0
37 -14 -66 0
-61 94 -5 0
95 3 47 0
22 25 -65 0
-48 -12 -23 0
2 89 87 0
80 70 76 0
34 -74 -98 0
-22 -63 51 0
-19 40 -2 0
-55 83 10 0
-35 -53 47 0
-2 25 -91 0
-50 -16 20 0
49 -60 -65 0
-78 91 -11 0
-71 -24 -81 0
10 78 -11 0
-92 -28 48 0
12 68 34 0
73 -97 -10 0
-40 -73 -82 0
3 -8 46 0
71 -49 6 0
73 35 72 0
-19 -9 52 0
-91 69 -17 0
-38 98 -3 0
89 -21 -93 0
100 24 7 0
-5 -8 1 0
-23 -97 -80 0
-82 -27 -3 0
24 33 57 0
34 40 60 0
5 62 -72 0
-88 -20 -44 0
-29 44 -100 0
15 63 68 0
-17 51 -73 0
-47 7 49 0
-9 49 -65 0
-47 -4 52 0
39 23 27 0
67 71 -81 0
-99 -54 76 0
93 -91 -81 0
42 -38 -48 0
72 60 57 0
27 30 88 0
46 -20 -3 0
-68 5 47 0
71 -78 96 0
72 98 78 0
-64 7 -56 0
-81 -55 87 0
-19 86 -80 0
-25 15 70 0
77 24 -75 0
-47 45 -76 0
91 4 -69 0
20 45 -40 0
-49 -71 8 0
-21 -78 -83 0
-84 44 79 0
27 69 48 0
-18 -70 50 0
84 66 56 0
-64 -52 76 0
51 33 -45 0
32 -9 31 0
-96 -42 -32 0
20 -6 -41 0
14 -41 -88 0
-79 47 82 0
17 24 7 0
19 83 -26 0
94 95 73 0
60 82 -17 0
52 -89 18 0
77 59 -37 0
-44 -34 -53 0
6 -86 -69 0
-83 50 -3 0
-55 -73 -68 0
2 77 -73 0
37 15 -85 0
13 -60 -76 0
57 -44 4 0
-27 93 78 0
77 83 -85 0
-38 68 -17 0
-84 86 100 0
57 -60 -67 0
35 43 29 0
-30 -74 -59 0
-5 -44 32 0
71 -33 8 0
-38 71 16 0
74 50 -98 0
68 -22 -44 0
40 -23 17 0
-86 78 -40 0
-2 -56 -22 0
-32 77 58 0
71 44 -45 0
72 -25 63 0
91 -96 -100 0
-86 -17 25 0
69 49 -20 0
41 -9 -5 0
68 -12 41 0
73 77 86 0
56 70 -80 0
-75 7 -22 0
60 16 -93 0
-75 73 -79 0
-74 61 -22 0
-3 -47 77 0
40 -81 -73 0
-31 8 -33 0
24 36 38 0
-50 -68 -55 0
-14 45 -85 0
-2 58 15 0
7 -50 44 0
-57 -48 47 0
25 9 -36 0
-79 13 -5 0
43 61 -79 0
-36 24 -85 0
49 29 50 0
6 -81 -82 0
80 -38 -28 0
9 54 40 0
-51 -27 -71 0
-11 37 -19 0
9 -72 35 0
-53 -58 52 0
100 -89 62 0
57 -9 32 0
71 7 -17 0
-72 84 -92 0
-41 71 -91 0
62 12 -24 0
50 -86 -73 0
57 88 12 0
-65 84 99 0
22 53 -30 0
18 62 -67 0
59 45 14 0
-39 -95 -15 0
68 22 73 0
35 -55 -4 0
100 36 -91 0
-31 32 99 0
-13 -21 -50 0
71 36 -59 0
-96 53 -81 0
27 39 -74 0
97 -77 -25 0
93 71 -62 0
2 11 56 0
-25 28 90 0
58 -26 -15 0
-64 -82 -10 0
-37 39 -50 0
81 -62 31 0
-21 23 29 0
