c Coffinhead hard-core n=100 seed=28 ratio=4.0
p cnf 100 400
-9 65 95 0
33 -88 58 0
-63 17 -84 0
-20 -22 -67 0
57 -67 -20 0
-94 64 -34 0
86 -29 -16 0
51 83 100 0
-39 2 71 0
-57 -76 -39 0
88 -7 2 0
-13 94 -63 0
-86 45 -58 0
17 -100 -37 0
-54 24 -1 0
100 -80 79 0
-20 -32 -96 0
49 67 -93 0
69 88 18 0
-64 69 29 0
-45 -39 42 0
44 77 19 0
42 87 61 0
26 24 34 0
12 -8 -10 0
-8 -17 -66 0
59 28 70 0
79 -52 72 0
64 -66 -59 0
-15 -58 5 0
28 -86 -2 0
-2 91 76 0
23 -2 3 0
78 49 -14 0
-75 99 -8 0
-28 -26 -56 0
-38 56 -24 0
-14 -6 -19 0
-66 89 -8 0
21 88 86 0
-28 -57 -72 0
66 10 70 0
22 42 -82 0
99 67 -80 0
69 -13 -66 0
-97 -91 -57 0
-8 -95 63 0
10 33 61 0
74 -38 -8 0
84 -23 -41 0
85 -82 -30 0
28 91 21 0
18 -69 -64 0
51 6 45 0
38 60 -95 0
58 56 54 0
-18 37 -10 0
-62 21 76 0
-30 -7 56 0
49 -82 21 0
97 2 64 0
78 18 -68 0
-19 -20 23 0
36 -5 49 0
13 -64 -71 0
2 -19 -11 0
-54 16 -50 0
83 29 28 0
37 -6 61 0
-42 4 95 0
-29 -49 -89 0
-19 68 3 0
91 -45 38 0
-67 -70 -32 0
-85 6 49 0
87 -13 -86 0
-29 55 -68 0
-30 -39 -73 0
53 92 -48 0
47 -57 -75 0
53 7 86 0
30 75 61 0
41 -88 54 0
-20 89 -99 0
-3 -77 -60 0
-69 1 -71 0
78 58 2 0
-57 68 -83 0
97 -74 33 0
32 -39 47 0
70 -26 48 0
-23 -37 71 0
-30 -81 16 0
-12 -85 14 0
10 -39 35 0
-27 -98 41 0
-41 72 84 0
74 89 47 0
-23 32 -48 0
55 76 -67 0
60 72 14 0
-35 -59 -12 0
25 30 -31 0
12 -88 51 0
-8 -83 -15 0
-98 37 44 0
-46 -60 84 0
5 85 25 0
-54 -55 46 0
54 -47 -49 0
-68 -67 77 0
67 -47 33 0
-65 -94 -77 0
-100 77 67 0
-100 -23 -51 0
-39 -3 36 0
-13 -59 -38 0
-64 11 69 0
-90 32 -4 0
48 -100 30 0
91 1 23 0
-75 -87 74 0
15 7 75 0
-15 59 -63 0
70 12 17 0
58 -52 -41 0
6 -82 -86 0
-27 -67 -42 0
-89 48 -12 0
-91 57 -11 0
-27 23 3 0
40 25 -16 0
-26 73 -93 0
40 28 -98 0
-31 25 93 0
-56 77 69 0
87 19 -72 0
73 59 70 0
-24 -65 12 0
83 53 38 0
-79 -86 -77 0
-32 28 -11 0
-60 -65 -55 0
21 38 96 0
34 -75 -80 0
35 29 68 0
-77 26 73 0
56 7 -97 0
-1 17 -94 0
62 29 -59 0
-93 3 95 0
66 -71 -47 0
-87 43 -66 0
-94 -62 -91 0
57 -34 -38 0
17 -52 -36 0
-16 -48 -32 0
8 -24 -15 0
28 77 50 0
-83 -24 69 0
-68 20 -99 0
-3 1 100 0
29 60 38 0
-4 46 72 0
3 -72 -83 0
-87 52 17 0
-21 77 -39 0
17 65 10 0
-54 15 64 0
-8 26 -77 0
85 -48 42 0
75 62 83 0
96 -32 -73 0
-67 7 -81 0
75 -92 -91 0
-16 54 69 0
-63 96 -22 0
86 -16 100 0
47 -42 34 0
63 -35 82 0
47 -91 -98 0
-70 -55 100 0
-74 10 27 0
74 37 92 0
-39 37 -77 0
86 40 -100 0
-22 50 14 0
24 -66 -73 0
-60 89 -6 0
20 52 -22 0
-75 65 -73 0
-42 -16 -36 0
29 19 16 0
-85 -88 -84 0
61 -89 15 0
37 -79 78 0
-42 30 -100 0
68 1 -79 0
-83 -12 -7 0
21 8 56 0
85 84 -66 0
14 -71 66 0
-93 36 -80 0
57 45 -60 0
22 -43 57 0
-26 27 55 0
38 -2 84 0
54 -19 35 0
59 -83 -87 0
67 27 48 0
-93 -58 -18 0
15 -83 2 0
-64 45 71 0
-22 7 85 0
75 -41 -82 0
4 63 -14 0
-44 -21 64 0
21 -14 -1 0
-38 3 12 0
20 -28 -86 0
-35 -66 -89 0
99 22 88 0
-62 11 -67 0
50 65 -43 0
-92 -14 -37 0
5 -38 56 0
73 -35 -89 0
24 10 -21 0
59 56 -75 0
76 -35 -10 0
-7 -30 -63 0
21 -45 -16 0
27 -94 -38 0
31 56 -59 0
-61 45 -15 0
-73 43 91 0
17 -62 -71 0
12 -42 66 0
-63 -26 -85 0
-44 -54 64 0
77 42 45 0
41 -17 -13 0
-48 -32 -13 0
-11 -75 -15 0
-38 80 6 0
-89 45 -92 0
28 64 -16 0
75 -53 -81 0
18 -58 -12 0
-81 -86 84 0
-19 -67 49 0
6 -88 -83 0
54 -36 62 0
-83 48 -88 0
29 76 -43 0
75 -6 90 0
62 -25 -38 0
-100 16 55 0
-5 -19 70 0
47 70 -57 0
51 -75 -86 0
-81 -97 -94 0
32 -57 3 0
-4 -39 -9 0
75 46 -25 0
-31 67 39 0
-49 99 -27 0
83 84 -48 0
85 -64 -90 0
-55 38 77 0
-69 68 -36 0
-43 -64 -11 0
35 78 -32 0
-48 94 5 0
99 33 60 0
8 -88 -86 0
58 19 42 0
-51 -1 -77 0
-49 39 72 0
59 56 94 0
48 53 -91 0
-30 -71 -10 0
28 81 -65 0
6 53 4 0
-66 87 -23 0
-87 -92 -7 0
95 -63 -20 0
42 -5 -81 0
-28 14 -43 0
-1 -37 85 0
6 81 -11 0
17 99 90 0
88 -41 61 0
-11 -95 -81 0
-99 64 25 0
-76 1 -95 0
39 -68 21 0
-86 50 -82 0
36 29 -5 0
-39 -42 25 0
-78 51 -33 0
-34 51 -41 0
79 -52 49 0
96 58 -57 0
-7 42 71 0
-42 -15 -69 0
91 -70 55 0
-62 91 8 0
-48 -22 -14 0
22 45 -29 0
94 -69 -20 0
-2 84 91 0
63 62 -17 0
69 21 22 0
59 29 -63 0
77 31 27 0
62 91 46 0
44 63 60 0
-100 -72 -97 0
25 -45 19 0
-76 20 -27 0
-64 44 79 0
20 79 -4 0
-70 -19 -18 0
98 15 43 0
-56 -73 61 0
87 -45 -92 0
43 72 100 0
-95 -22 -99 0
-33 -89 67 0
7 -32 -85 0
78 59 45 0
-8 15 23 0
6 -96 -4 0
-88 53 -63 0
-13 54 -31 0
-80 -10 3 0
-17 93 95 0
-67 -26 94 0
-43 -100 45 0
41 -85 -82 0
5 16 94 0
39 9 -15 0
-13 -62 65 0
-90 -94 -50 0
3 -75 36 0
100 94 -71 0
-28 52 -55 0
-54 58 87 0
94 -11 73 0
-1 44 -27 0
86 19 96 0
28 -82 21 0
39 34 -49 0
35 -87 79 0
-85 -7 37 0
-85 -40 -100 0
98 26 69 0
-85 -3 82 0
-8 -69 -23 0
-77 94 -84 0
73 59 86 0
24 -6 91 0
-48 1 -12 0
-92 -100 30 0
21 97 -4 0
98 67 -72 0
-91 5 -92 0
58 -95 -73 0
-85 -87 -97 0
-77 37 -78 0
80 -13 -39 0
-88 82 -25 0
-60 -98 8 0
-66 84 -65 0
98 -82 57 0
57 -41 76 0
-93 -77 59 0
-26 -14 -41 0
40 26 -96 0
71 48 57 0
-95 -1 15 0
-16 -28 -43 0
98 -29 10 0
71 44 54 0
-72 -20 3 0
55 -98 -19 0
-18 96 87 0
-80 50 94 0
-50 -9 -54 0
-38 -5 29 0
-26 -34 -19 0
19 -62 -46 0
40 -23 -67 0
1 -80 92 0
74 -16 -41 0
-88 -81 -23 0
97 -75 43 0
49 7 -33 0
7 52 67 0
