c Coffinhead hard-core n=100 seed=11 ratio=4.0
p cnf 100 400
-72 100 38 0
81 23 53 0
100 84 52 0
89 -49 58 0
12 93 -58 0
64 35 62 0
8 53 32 0
81 12 16 0
-72 -12 17 0
81 79 -40 0
56 -34 -40 0
58 -94 45 0
76 11 39 0
-54 51 -40 0
-35 73 76 0
-81 31 -50 0
-8 45 48 0
-77 -88 57 0
-2 6 73 0
-67 -74 96 0
53 -59 -68 0
-73 29 22 0
-58 -100 1 0
91 99 87 0
-11 93 -41 0
-2 -20 56 0
54 23 32 0
-84 -88 14 0
51 -78 82 0
10 -59 71 0
41 80 -39 0
-92 -84 -25 0
-44 95 88 0
30 -2 50 0
71 -66 -82 0
-28 -3 -1 0
-93 -24 68 0
-94 -39 37 0
-93 -37 -14 0
28 23 73 0
97 66 80 0
19 -44 -15 0
-22 39 6 0
50 -15 92 0
38 66 -34 0
-28 96 24 0
2 -40 49 0
80 -31 1 0
74 34 -21 0
88 97 44 0
-16 -94 -45 0
-89 -15 -74 0
67 -16 50 0
-58 -9 -56 0
60 -58 -37 0
32 73 -69 0
47 82 -100 0
-81 3 -64 0
42 -30 -40 0
-31 -47 -74 0
6 -61 -18 0
-70 -64 9 0
74 -92 -45 0
50 82 81 0
22 -6 -46 0
-66 25 18 0
34 70 17 0
42 -99 -65 0
48 93 66 0
11 -68 83 0
51 34 96 0
18 -15 5 0
-10 63 -36 0
-8 -71 38 0
13 -53 -10 0
-10 -77 -96 0
-73 -24 -91 0
37 -21 55 0
-77 -90 45 0
6 -50 -84 0
-43 -65 39 0
-33 -86 17 0
-52 91 -53 0
1 -71 8 0
85 -87 71 0
-10 -97 -82 0
-44 58 70 0
65 16 -35 0
-16 28 -62 0
58 -21 5 0
-29 -26 94 0
58 -33 -29 0
-22 30 38 0
1 37 -5 0
-71 -36 7 0
-60 -59 72 0
8 -9 19 0
73 6 -96 0
29 76 83 0
-97 -28 55 0
24 -61 -72 0
-90 97 2 0
-92 20 50 0
29 -99 30 0
78 -75 80 0
-37 -67 -7 0
-95 -66 41 0
74 -4 -23 0
-49 53 79 0
-11 56 28 0
97 -41 61 0
-21 59 -51 0
55 -85 -2 0
89 -57 -71 0
-34 -14 91 0
-31 -39 -16 0
45 16 7 0
-65 -68 -44 0
25 -44 -52 0
25 97 -8 0
-97 51 39 0
55 97 94 0
93 -61 -24 0
54 49 77 0
-19 1 -81 0
90 -92 19 0
91 -88 76 0
-64 46 56 0
-61 -48 -15 0
-18 60 -41 0
33 -58 29 0
-30 -71 -39 0
-69 86 -87 0
74 14 77 0
-9 -54 59 0
-96 4 -24 0
-85 -25 97 0
84 32 -93 0
-64 70 2 0
30 16 -31 0
-13 -9 37 0
11 77 34 0
-37 -72 48 0
-31 35 -59 0
-88 -71 23 0
-34 -54 -99 0
-13 -16 60 0
-27 -37 -10 0
-83 44 -79 0
-41 77 1 0
-98 -94 90 0
75 -91 25 0
78 -43 72 0
30 4 -70 0
68 -49 -76 0
16 58 9 0
-9 32 -18 0
90 -78 -98 0
-30 81 -53 0
-21 -62 -67 0
-37 -81 -38 0
-88 -8 -28 0
5 -97 18 0
86 64 85 0
-82 75 -24 0
-26 36 -2 0
30 72 -59 0
47 28 -34 0
38 44 -36 0
-86 44 43 0
26 -78 75 0
45 -39 -6 0
41 -16 22 0
41 11 -98 0
20 -62 89 0
-71 11 -83 0
-9 -14 57 0
-79 -7 24 0
-64 73 34 0
7 -34 -25 0
-34 -84 47 0
77 -5 -35 0
-96 64 38 0
-90 21 68 0
-89 7 -93 0
-51 57 67 0
92 16 95 0
-35 -84 92 0
-11 -52 46 0
-90 93 37 0
-6 -5 1 0
44 -5 -17 0
-80 83 -63 0
-68 -78 51 0
88 -58 -68 0
30 -96 8 0
86 63 25 0
61 68 -4 0
-82 -92 -91 0
-71 -73 82 0
44 36 -29 0
36 -82 -19 0
-42 82 56 0
-67 -6 5 0
-75 77 -72 0
-97 -17 77 0
67 33 -89 0
43 -96 -14 0
-8 23 57 0
-50 100 -64 0
-72 39 -75 0
67 25 -52 0
26 3 -39 0
53 -63 -24 0
1 -13 75 0
67 72 -100 0
-100 -20 67 0
-73 -28 55 0
-92 93 -11 0
-94 -48 85 0
-38 -81 67 0
82 66 52 0
27 -76 -83 0
-34 59 -55 0
68 86 72 0
44 -100 55 0
-14 5 46 0
85 -21 -71 0
53 80 63 0
-66 -95 28 0
-27 -14 -55 0
94 -35 -91 0
-66 -33 -19 0
87 -33 -92 0
-19 -49 1 0
-100 -23 -86 0
83 -98 63 0
14 12 40 0
15 -34 -73 0
31 18 -55 0
49 31 -55 0
-57 -38 77 0
47 -2 -68 0
36 27 -45 0
47 85 -51 0
78 95 -52 0
18 40 -2 0
-96 -54 -4 0
-73 64 -91 0
41 82 97 0
52 38 -10 0
58 -3 -34 0
50 -16 46 0
64 74 -4 0
75 -89 16 0
-18 -92 27 0
-21 -85 89 0
80 -71 10 0
51 -77 -24 0
-40 -32 -81 0
-32 68 -21 0
-47 -61 -100 0
-51 -39 3 0
-59 28 -34 0
35 -45 -53 0
-9 22 -12 0
-14 65 -29 0
64 -38 66 0
-49 51 -44 0
19 -65 37 0
-27 56 61 0
44 53 -21 0
-19 -41 -32 0
-27 -47 -43 0
-14 -2 89 0
58 -43 77 0
51 40 75 0
37 -59 87 0
-51 -85 -30 0
74 84 -59 0
38 43 45 0
38 100 53 0
-9 -57 -40 0
63 9 23 0
-3 94 82 0
54 95 -94 0
-63 95 -96 0
11 -26 -23 0
64 -57 -74 0
28 69 73 0
-57 -67 95 0
-76 -44 -34 0
-23 46 27 0
-60 -91 8 0
53 -99 91 0
39 62 7 0
98 -81 -84 0
54 19 -26 0
-80 -22 43 0
10 -16 67 0
-5 -18 60 0
68 70 17 0
-33 -100 38 0
-96 12 18 0
14 -55 -4 0
60 38 -42 0
-72 98 -55 0
6 -36 -58 0
35 -74 -96 0
69 -92 -81 0
22 -30 -29 0
-10 50 -57 0
23 77 50 0
72 -1 -21 0
-55 -39 40 0
24 -77 42 0
59 -91 63 0
-4 68 -33 0
18 29 93 0
-88 63 67 0
-92 25 -11 0
29 11 -26 0
-33 -72 -12 0
39 76 -59 0
52 -30 -45 0
-3 -45 17 0
-6 -15 -74 0
-83 -43 -14 0
-9 -31 68 0
-94 -52 58 0
38 -18 -69 0
-21 100 32 0
-77 64 -17 0
74 91 -29 0
85 -100 45 0
-94 -42 -91 0
4 87 91 0
-75 -32 -37 0
83 -47 -21 0
89 -83 99 0
-13 72 100 0
-70 -8 -44 0
-74 -87 16 0
51 40 45 0
52 -30 -47 0
-42 57 98 0
-21 -27 76 0
16 -52 1 0
-15 -7 26 0
62 92 -14 0
52 94 67 0
45 -89 -26 0
-99 -9 96 0
-92 41 59 0
57 -63 -83 0
42 31 91 0
-1 75 13 0
-87 29 -46 0
-27 -48 78 0
-32 -89 39 0
-94 -93 51 0
94 26 45 0
-82 -52 -6 0
14 33 9 0
76 -83 85 0
91 -15 -73 0
5 69 -99 0
41 75 -65 0
-2 33 28 0
100 -64 10 0
100 67 -44 0
-44 17 -11 0
-32 -31 -79 0
17 71 -18 0
-99 66 -70 0
-5 -68 -57 0
1 -47 -79 0
93 4 -94 0
46 -50 -74 0
-32 -9 45 0
25 -76 99 0
-97 36 -100 0
63 86 12 0
-23 58 -56 0
-86 -52 26 0
44 30 -19 0
90 62 -20 0
96 -88 15 0
-42 31 -1 0
97 -58 -63 0
-82 -75 92 0
-93 38 -9 0
27 18 24 0
-23 -75 -7 0
18 -20 -68 0
64 21 -29 0
-92 -90 -84 0
93 -19 -68 0
75 -20 83 0
39 -4 -76 0
