c Coffinhead hard-core n=100 seed=17 ratio=4.0
p cnf 100 400
94 -38 -25 0
1 -74 17 0
64 82 -37 0
-54 95 -60 0
-39 63 -12 0
-4 -54 -66 0
-63 -11 54 0
-89 46 -57 0
-93 -40 -21 0
-42 89 -67 0
41 75 32 0
67 19 10 0
6 24 43 0
83 57 -28 0
56 4 95 0
-99 30 -4 0
-77 -85 37 0
13 68 -14 0
-55 52 -61 0
-10 -52 1 0
-78 16 71 0
-87 -62 95 0
19 60 -8 0
75 -63 68 0
-63 39 49 0
-49 65 -99 0
-95 -53 -5 0
37 62 8 0
-40 -96 -46 0
-24 -73 -28 0
21 -45 70 0
59 13 -88 0
40 58 -10 0
-17 10 84 0
27 43 -89 0
-25 9 76 0
-58 -14 83 0
-32 74 -56 0
73 -74 17 0
95 -89 76 0
-87 -5 27 0
-34 -15 75 0
8 84 2 0
-5 -95 -16 0
-26 39 -31 0
96 -89 23 0
84 -89 -98 0
60 -74 -59 0
-62 -54 -40 0
-63 -68 19 0
49 -77 -52 0
82 -63 15 0
-2 34 -47 0
2 -67 -56 0
-19 -94 -25 0
-10 95 -13 0
87 43 42 0
-20 49 88 0
19 11 96 0
42 -18 -84 0
-93 -7 -92 0
-89 14 69 0
-68 82 81 0
90 36 95 0
-56 96 -79 0
-16 23 2 0
2 40 72 0
90 -76 92 0
-53 48 -21 0
87 -94 -17 0
40 -14 -97 0
5 23 -59 0
83 -5 20 0
25 -24 84 0
53 -24 -5 0
39 -47 -31 0
-11 -81 -55 0
53 97 -25 0
-85 -80 -40 0
-11 -77 -81 0
40 -93 -89 0
-11 -97 -14 0
1 33 36 0
62 73 -70 0
-12 26 83 0
81 45 -99 0
65 -3 36 0
-77 -98 -60 0
44 -98 85 0
72 -82 -27 0
90 34 74 0
-48 2 -40 0
-71 16 -95 0
62 -17 -45 0
79 -60 -74 0
-2 -62 71 0
55 -44 33 0
-16 49 -9 0
84 -49 79 0
73 -11 8 0
68 66 -48 0
-83 -45 -62 0
3 8 -2 0
72 32 61 0
-84 -18 -70 0
100 59 85 0
-94 11 -80 0
29 12 78 0
-56 -17 -5 0
72 -18 -74 0
-99 61 72 0
28 -72 -60 0
-67 98 20 0
96 84 46 0
-97 26 -4 0
-90 98 5 0
27 -42 38 0
-27 49 42 0
15 13 -44 0
-34 -36 -70 0
-58 -3 20 0
13 24 29 0
-12 -86 80 0
-22 -49 85 0
7 61 -83 0
88 -12 86 0
-24 37 -66 0
71 -8 79 0
42 57 -98 0
-36 99 -61 0
76 -27 -35 0
95 6 82 0
-12 -46 -4 0
-69 36 -14 0
-87 88 73 0
27 -93 -43 0
74 -10 -42 0
97 87 -98 0
-61 -53 12 0
-75 -9 -100 0
-35 -69 -27 0
51 -58 95 0
17 27 55 0
63 -62 77 0
83 -48 -31 0
-17 15 -57 0
-91 58 -7 0
-77 -21 65 0
76 72 12 0
22 -84 -100 0
-59 -18 75 0
29 -89 11 0
-57 -44 100 0
-82 57 -33 0
-6 -84 49 0
-33 63 -24 0
62 76 -18 0
21 30 -7 0
79 -36 -14 0
36 64 100 0
-46 51 6 0
52 -90 40 0
-25 54 90 0
-53 22 -42 0
84 64 -33 0
77 95 32 0
-76 -47 -5 0
7 40 59 0
4 83 33 0
43 -41 34 0
-50 21 -65 0
-99 82 -67 0
49 -3 -81 0
6 -43 87 0
39 -35 64 0
-8 -21 -99 0
-95 -19 49 0
1 82 -62 0
71 52 23 0
88 93 4 0
-87 -54 -9 0
20 -17 -55 0
-57 53 77 0
69 -56 -24 0
-72 27 85 0
-51 -3 -62 0
-74 12 -84 0
66 -7 -50 0
73 -84 57 0
-43 -89 32 0
8 -77 69 0
83 -58 91 0
-56 45 -7 0
-57 92 -37 0
-6 85 19 0
-93 66 3 0
-41 -4 -48 0
97 33 -35 0
-98 100 67 0
-1 45 -74 0
-59 99 -69 0
-80 9 -28 0
-78 -27 -4 0
-82 95 -58 0
-97 62 -16 0
66 -70 25 0
-2 -49 -60 0
97 84 -57 0
-16 -64 32 0
31 53 -86 0
-10 -21 -3 0
-59 18 -99 0
57 58 98 0
62 -71 65 0
32 -43 60 0
-32 -84 -38 0
-91 -99 41 0
-46 -31 72 0
20 -81 -29 0
20 96 -61 0
-90 -16 78 0
49 59 55 0
-70 58 -56 0
98 -82 49 0
-23 51 -7 0
-36 55 -73 0
8 -74 85 0
87 -43 -49 0
55 73 99 0
-92 -35 46 0
-54 48 -64 0
-55 59 61 0
35 -26 -1 0
32 -94 -12 0
-56 -84 -18 0
68 65 76 0
49 -73 24 0
-98 83 34 0
-39 -7 44 0
-83 53 -37 0
34 -39 -97 0
55 97 74 0
39 44 15 0
39 65 -92 0
-36 35 -66 0
-20 -34 14 0
-43 20 -60 0
70 -71 25 0
-7 -36 -54 0
88 -18 34 0
-13 73 23 0
94 -50 -19 0
-86 95 -48 0
-55 -43 52 0
-47 -77 -61 0
71 59 68 0
-62 -51 22 0
6 31 95 0
-44 -87 -92 0
-46 -89 39 0
87 -34 10 0
-91 -61 -23 0
79 -87 57 0
17 27 89 0
-68 -95 40 0
55 -32 82 0
-32 46 -86 0
67 -85 -17 0
-79 50 31 0
-19 -100 49 0
-83 -38 4 0
-35 36 -3 0
49 99 81 0
90 -12 -31 0
-57 -31 11 0
48 89 -30 0
-45 -34 38 0
13 -14 -78 0
76 14 -54 0
80 -57 -41 0
-13 -97 -26 0
96 67 -91 0
-53 -23 87 0
-78 79 -13 0
45 17 -9 0
-29 77 11 0
-79 99 40 0
23 26 4 0
-89 -34 -96 0
-51 13 -50 0
-30 43 -20 0
30 44 73 0
34 -6 54 0
-14 -78 -75 0
-96 -24 12 0
-58 79 27 0
-42 53 56 0
-5 -12 -25 0
72 -45 27 0
77 -35 -59 0
-90 -10 -12 0
-72 27 54 0
87 -85 11 0
-73 31 -24 0
-47 -81 -9 0
24 9 -100 0
-24 52 97 0
-63 -45 58 0
-63 21 -49 0
52 85 -69 0
-4 81 -50 0
16 32 76 0
-21 -92 12 0
-5 -85 98 0
62 77 -53 0
21 6 94 0
77 63 10 0
12 -17 -99 0
72 17 64 0
-64 89 56 0
28 -83 11 0
41 24 87 0
-83 -2 -98 0
-71 69 -89 0
-26 23 32 0
-44 28 -87 0
77 -23 55 0
-19 64 -78 0
-41 -1 63 0
16 8 24 0
-33 -10 70 0
31 37 -52 0
-97 75 47 0
55 57 -77 0
-35 -49 -9 0
48 51 -95 0
-39 41 -10 0
-17 15 96 0
10 -92 -34 0
-18 59 88 0
68 -89 -9 0
-6 -60 33 0
-62 -43 -61 0
76 28 97 0
24 -84 12 0
-5 -22 58 0
40 30 -62 0
-89 -75 -76 0
-68 -8 100 0
-19 -27 -59 0
85 -31 -45 0
-15 -7 -50 0
-71 11 -83 0
35 84 -34 0
-45 8 16 0
-37 23 -96 0
-28 -81 -57 0
94 -58 -42 0
60 -71 83 0
98 86 57 0
-21 -48 -99 0
-36 -29 -39 0
-73 -11 -22 0
84 13 66 0
-37 100 27 0
-11 23 35 0
-42 80 -11 0
-50 95 12 0
26 10 -28 0
53 32 -28 0
41 -38 48 0
96 15 -98 0
-82 98 -80 0
58 -62 -36 0
17 58 -61 0
40 -48 63 0
79 65 36 0
-73 -40 57 0
34 45 -21 0
76 -6 -27 0
-65 55 5 0
-48 -98 -75 0
95 74 27 0
-24 21 -54 0
-62 -29 -47 0
89 -10 42 0
12 48 -76 0
-75 -85 -46 0
-42 -46 23 0
-18 -47 20 0
-96 -31 -66 0
82 33 -10 0
96 -48 84 0
-56 -87 57 0
52 -99 -36 0
66 -4 17 0
-99 -9 -71 0
96 -18 2 0
-50 -55 -64 0
-72 -5 6 0
