c Coffinhead hard-core n=100 seed=29 ratio=4.0
p cnf 100 400
26 1 27 0
-55 35 -37 0
-56 -9 -34 0
7 -10 -12 0
98 84 9 0
19 20 44 0
72 -70 88 0
96 40 24 0
-75 2 -61 0
-98 62 31 0
-36 99 37 0
100 -61 45 0
94 -40 -50 0
-83 -1 -56 0
72 84 -10 0
75 -27 18 0
-23 -63 17 0
-100 -45 53 0
39 3 -80 0
-23 54 79 0
-47 89 -11 0
-51 -67 95 0
88 -13 54 0
5 31 -4 0
39 66 -26 0
8 -45 -55 0
-65 -100 42 0
-61 46 38 0
31 -65 -72 0
-10 27 -85 0
78 -46 -30 0
19 -31 47 0
-36 -43 25 0
-22 -27 -24 0
96 61 90 0
-64 -14 -40 0
16 39 94 0
59 -11 3 0
-89 -47 98 0
73 -8 -32 0
-97 46 67 0
66 12 92 0
71 100 -16 0
-39 -72 33 0
-81 -98 72 0
84 -52 45 0
93 -38 32 0
96 -57 -100 0
-55 93 13 0
-60 -12 83 0
62 -58 -81 0
-12 -91 89 0
-13 11 6 0
83 -1 -80 0
58 49 4 0
-31 33 -72 0
-67 -28 84 0
100 -12 9 0
45 48 -61 0
-65 -20 -99 0
94 15 73 0
-52 -44 22 0
-5 -95 -14 0
61 -47 -94 0
-11 85 -45 0
-70 92 97 0
-79 41 -49 0
34 68 -47 0
75 10 20 0
19 -31 -79 0
-13 21 69 0
69 -37 34 0
-81 -89 97 0
25 94 -47 0
-76 -70 -80 0
1 -32 86 0
-92 -99 100 0
11 -90 32 0
-20 45 88 0
31 13 -34 0
-33 14 -88 0
84 6 -79 0
-41 48 67 0
46 61 82 0
-30 -73 -57 0
34 66 11 0
54 -67 28 0
76 -44 -45 0
-57 -32 -17 0
91 -44 29 0
43 10 39 0
96 99 56 0
8 -58 -52 0
89 -23 -32 0
-75 -57 -94 0
99 -94 -42 0
17 8 -87 0
-7 -70 -5 0
-72 -63 -90 0
11 -50 2 0
-73 8 -92 0
87 74 26 0
1 19 85 0
45 68 -51 0
-74 44 35 0
-17 -14 30 0
-26 -82 64 0
-99 56 -64 0
-29 -90 54 0
-56 -47 49 0
68 -37 -23 0
40 98 17 0
88 18 -10 0
-96 79 -86 0
57 -5 81 0
-15 68 100 0
12 36 83 0
-67 -70 -15 0
5 -89 -36 0
-42 91 38 0
27 34 97 0
-92 -90 30 0
-31 58 -93 0
18 -81 -4 0
30 -50 38 0
-88 83 -40 0
-88 -99 13 0
-46 20 -43 0
-37 -50 -14 0
-87 89 -35 0
-68 66 -20 0
50 -76 48 0
78 -28 -5 0
84 -5 -88 0
-15 -89 88 0
89 -41 -97 0
64 71 -27 0
-24 -8 -18 0
11 72 62 0
-21 5 60 0
-86 46 31 0
13 26 -9 0
93 -45 -90 0
-25 89 -65 0
-17 51 -41 0
74 -30 53 0
100 -24 29 0
70 98 45 0
-68 94 15 0
-78 -39 99 0
-76 18 48 0
-78 39 -5 0
-57 54 -2 0
55 67 31 0
-53 70 64 0
-53 38 70 0
-42 -11 6 0
-63 47 26 0
56 84 -93 0
-73 19 56 0
-71 3 12 0
86 -1 35 0
81 88 30 0
-74 66 79 0
-23 -73 44 0
-91 84 -88 0
25 -56 12 0
-13 -32 -33 0
-100 25 -11 0
-4 -81 35 0
-31 -25 55 0
-8 97 -64 0
-64 -1 70 0
-39 67 -36 0
19 -56 -29 0
28 33 42 0
94 25 82 0
47 95 -83 0
61 -98 -26 0
25 88 2 0
57 9 -54 0
-86 -99 1 0
49 -45 47 0
90 -83 65 0
-31 49 80 0
-49 65 43 0
80 -29 38 0
82 55 -40 0
81 59 89 0
-18 37 98 0
-98 -29 4 0
28 -59 3 0
54 94 67 0
-99 38 26 0
-73 -32 -5 0
-63 -68 -33 0
-60 48 6 0
-49 99 23 0
-53 -48 -97 0
-65 -76 86 0
-97 -77 63 0
65 48 -35 0
-99 7 64 0
-18 57 17 0
99 14 73 0
69 41 61 0
50 89 70 0
89 70 55 0
-72 53 34 0
-30 -34 11 0
49 -29 -52 0
-96 16 -77 0
50 4 -87 0
90 -34 30 0
86 -43 18 0
89 -32 -21 0
25 -63 -69 0
21 24 -47 0
-43 -9 -50 0
90 -15 -12 0
73 42 43 0
47 -23 -79 0
-78 -73 84 0
-84 -72 -40 0
34 44 -71 0
22 -70 20 0
89 60 -97 0
14 35 -8 0
92 -64 66 0
-49 -13 -93 0
-83 -33 -47 0
-100 -74 99 0
49 67 46 0
-38 40 37 0
-7 -74 -27 0
-7 -51 -75 0
-31 -64 -22 0
-16 11 93 0
65 68 57 0
57 50 76 0
-63 -12 68 0
-5 -69 61 0
93 78 15 0
5 46 89 0
-66 -87 74 0
-14 -68 97 0
88 -79 -75 0
-9 19 -68 0
83 -73 3 0
-83 -76 -46 0
68 -19 40 0
-15 -21 -65 0
-73 31 -79 0
-93 -76 -68 0
-59 -41 -6 0
83 94 1 0
34 41 -20 0
-41 57 18 0
-71 9 39 0
-81 -73 22 0
80 25 -58 0
-29 -72 -85 0
98 -35 -13 0
-83 -29 -52 0
-51 54 86 0
-94 -64 91 0
74 -96 17 0
-67 -50 1 0
29 -88 -19 0
86 -50 -37 0
-62 11 -67 0
-29 90 -86 0
21 -60 39 0
-36 48 -1 0
81 -48 71 0
44 -29 -9 0
63 7 4 0
51 23 92 0
-24 66 15 0
-31 -2 -20 0
-65 -50 -89 0
-85 -28 -93 0
60 -82 89 0
46 -69 26 0
-24 -1 -69 0
-61 -34 -30 0
8 53 58 0
-58 -47 -68 0
-11 51 89 0
91 -72 22 0
32 90 61 0
-25 14 57 0
26 -45 -97 0
-29 40 -53 0
-85 60 -39 0
-30 98 -62 0
34 -58 59 0
-35 4 2 0
65 -89 84 0
82 -73 -71 0
5 -12 -56 0
-50 34 -31 0
95 58 42 0
16 -76 -100 0
2 -11 23 0
96 -14 -19 0
-22 50 -39 0
45 79 -33 0
-33 -52 -51 0
57 22 97 0
-2 38 -66 0
10 30 -4 0
37 -51 70 0
30 74 -1 0
29 -76 32 0
-15 -34 -56 0
-8 -91 -74 0
-83 -62 36 0
-100 33 -81 0
-89 -5 77 0
-96 73 -56 0
-25 53 -82 0
81 -49 66 0
-58 44 32 0
-65 69 -93 0
-31 -4 -21 0
-74 52 94 0
-36 -56 -3 0
-45 71 63 0
-33 66 74 0
99 -40 21 0
42 -44 66 0
34 73 -21 0
-7 2 -49 0
3 -80 61 0
-32 -85 -36 0
76 17 86 0
74 -1 -19 0
55 -60 -57 0
-22 -7 -71 0
59 -27 -58 0
-98 -10 38 0
87 82 40 0
1 -55 28 0
73 -18 -13 0
78 -74 -23 0
-62 -95 47 0
-50 -94 -84 0
73 -34 22 0
77 -43 -88 0
4 52 35 0
-72 88 97 0
-76 49 -70 0
-56 57 39 0
-60 -58 -97 0
-32 9 98 0
-52 94 -24 0
-40 -71 10 0
-28 71 11 0
-19 90 68 0
49 -21 -97 0
-100 59 -56 0
-1 30 61 0
35 32 74 0
88 61 54 0
36 29 82 0
76 84 99 0
-4 73 -8 0
-18 -3 74 0
-21 -8 -92 0
-90 -92 -17 0
30 37 -70 0
65 5 62 0
-71 -9 -63 0
-51 99 -89 0
2 -34 31 0
69 -2 -30 0
-8 45 69 0
82 -14 22 0
95 -74 42 0
-91 85 -96 0
-8 -71 39 0
-44 -94 -10 0
-16 21 98 0
-16 89 55 0
20 12 5 0
-14 11 -90 0
-97 -31 35 0
-72 -53 -89 0
20 -81 57 0
96 13 -26 0
-97 -54 35 0
-70 -84 -56 0
-100 22 -66 0
35 -98 86 0
47 61 46 0
-73 -34 96 0
65 95 -38 0
-15 -7 -67 0
-94 -11 -59 0
