c Coffinhead hard-core n=100 seed=5 ratio=4.0
p cnf 100 400
6 2 -49 0
-3 -20 -89 0
-73 7 59 0
72 70 -19 0
-60 23 -44 0
90 33 -21 0
99 -11 88 0
32 44 -1 0
59 95 -16 0
55 -27 -71 0
-10 64 -41 0
-79 -88 36 0
22 27 -55 0
-53 -35 76 0
1 70 14 0
-88 -70 79 0
-39 -84 -12 0
-4 -60 72 0
15 -68 -45 0
99 35 -70 0
48 -36 35 0
75 57 89 0
-23 33 -48 0
82 91 18 0
-30 -33 95 0
34 -57 16 0
-12 81 8 0
3 -84 93 0
-3 4 -90 0
95 -99 83 0
79 76 -24 0
-90 -85 39 0
25 60 -91 0
38 -79 -77 0
-18 31 -77 0
91 -96 35 0
-25 -96 -48 0
-13 90 -76 0
-34 -80 -38 0
-16 54 37 0
-6 58 37 0
-87 -98 -20 0
55 -36 -92 0
78 72 4 0
-32 11 -9 0
-46 50 -76 0
-30 87 35 0
-91 -95 -94 0
-47 13 -99 0
60 12 1 0
-66 24 -60 0
88 19 -53 0
-77 -91 54 0
39 -25 61 0
97 -81 -98 0
6 23 30 0
-84 -97 -77 0
70 -33 -22 0
10 -91 47 0
8 -56 -3 0
10 41 91 0
82 11 -75 0
-36 8 21 0
24 70 90 0
-78 -19 24 0
74 98 100 0
-84 86 -46 0
27 -72 -80 0
-90 47 72 0
76 72 -34 0
44 68 49 0
-74 28 47 0
84 -50 -71 0
76 -77 50 0
-80 88 -6 0
-59 -35 -24 0
100 -32 96 0
-1 38 -90 0
92 -76 47 0
35 -26 77 0
7 -48 -53 0
-58 44 -91 0
-29 -78 -77 0
36 47 27 0
2 39 41 0
-73 -87 -100 0
-100 69 93 0
17 59 -29 0
-82 67 -3 0
-56 -63 -64 0
-48 73 -35 0
66 95 -96 0
1 41 21 0
52 -77 -62 0
100 43 25 0
-2 -99 44 0
44 -99 -94 0
27 -92 2 0
-57 -8 -39 0
-48 11 67 0
62 50 -87 0
36 -54 76 0
-39 -25 24 0
26 -21 -54 0
-77 16 -93 0
-21 -97 -31 0
-72 -23 4 0
-42 -83 -30 0
-75 36 43 0
6 64 -41 0
-96 55 54 0
-5 -89 84 0
-76 -54 61 0
70 48 -79 0
-90 47 65 0
16 61 -78 0
-2 -83 -17 0
19 41 -44 0
-40 67 31 0
27 -50 -63 0
-58 87 -11 0
20 65 69 0
62 36 38 0
43 70 64 0
49 -62 2 0
50 23 20 0
-75 64 95 0
69 88 -84 0
-37 93 11 0
-1 -8 -100 0
1 -45 15 0
72 -4 -38 0
13 57 31 0
1 39 100 0
72 -27 -65 0
70 -74 81 0
-45 -85 -63 0
20 -14 18 0
45 100 -78 0
-51 45 -92 0
88 -55 7 0
57 58 -20 0
4 70 34 0
32 -68 -26 0
99 -92 -34 0
5 -100 89 0
16 90 -82 0
42 -72 31 0
30 56 59 0
57 -3 61 0
-63 -32 96 0
-37 -1 22 0
-57 -6 38 0
-34 3 16 0
94 -78 -22 0
31 33 44 0
1 30 84 0
-41 65 -63 0
94 -39 13 0
8 -17 -42 0
-18 95 19 0
-69 94 87 0
67 -33 -23 0
56 -21 34 0
-50 -95 84 0
20 -13 54 0
-95 -53 -83 0
-44 60 21 0
90 24 16 0
55 37 -70 0
-98 32 -83 0
-62 64 85 0
-62 10 23 0
-45 84 19 0
47 -70 -51 0
-85 -46 -74 0
-22 -75 -3 0
-51 -16 46 0
-52 -37 51 0
80 -81 -63 0
67 -53 -31 0
-28 -81 79 0
-58 43 -100 0
91 75 -48 0
-79 -49 -38 0
-40 -71 28 0
-65 29 33 0
-99 100 -16 0
-49 26 91 0
-63 -33 -96 0
74 -54 -19 0
100 35 -12 0
98 -62 58 0
-84 -70 -32 0
21 23 15 0
49 69 45 0
24 94 -31 0
62 -10 69 0
52 -6 3 0
57 89 80 0
-11 -40 85 0
53 9 86 0
-51 53 -98 0
-78 -33 -85 0
38 -62 9 0
42 -78 -61 0
25 56 -12 0
-80 1 -85 0
82 81 78 0
40 60 5 0
36 -10 95 0
75 32 -70 0
-3 75 65 0
-67 74 -57 0
95 34 33 0
-1 -96 30 0
49 -79 12 0
61 -15 82 0
1 -9 63 0
-5 74 -89 0
53 77 44 0
-56 -59 27 0
-24 -99 -12 0
67 -42 -55 0
-24 -57 -44 0
68 1 -52 0
-2 96 70 0
54 -31 -84 0
-51 -42 59 0
38 78 -69 0
76 5 23 0
16 -14 -10 0
37 97 29 0
33 13 -47 0
-57 37 -4 0
94 -21 97 0
-100 72 10 0
65 -86 39 0
-100 -50 81 0
-53 24 4 0
-82 93 20 0
100 24 19 0
86 -6 -54 0
11 71 7 0
-46 -22 -84 0
63 -42 -41 0
85 47 -57 0
74 89 -25 0
-54 -85 64 0
-66 23 -17 0
71 -28 92 0
-23 75 90 0
16 -4 -10 0
11 22 10 0
49 -21 -79 0
89 -60 -54 0
71 75 -57 0
11 40 10 0
-96 -90 -65 0
90 11 -93 0
62 -60 54 0
-43 -93 -97 0
-11 -55 -75 0
86 -6 97 0
-59 81 23 0
30 50 -24 0
-94 75 -58 0
91 -2 58 0
100 -10 53 0
65 -82 -14 0
-88 -66 62 0
39 -86 12 0
-67 20 -68 0
88 20 -41 0
32 76 -52 0
-62 70 73 0
-4 65 75 0
65 -55 -70 0
25 35 -78 0
85 19 87 0
-89 33 -2 0
-49 -60 -1 0
44 36 18 0
70 28 10 0
-77 -83 -32 0
-95 7 41 0
-11 -48 -91 0
2 11 -13 0
8 3 -20 0
-31 -21 -76 0
-43 -88 -55 0
51 64 -97 0
-16 -20 -100 0
-80 96 29 0
-33 57 28 0
12 79 87 0
-84 1 -9 0
-15 56 18 0
-45 -68 -84 0
-78 -65 41 0
54 -21 68 0
-44 18 40 0
53 -15 78 0
56 -1 -93 0
-50 58 -1 0
26 -37 -83 0
-34 10 51 0
55 -60 34 0
-13 95 -38 0
-72 79 80 0
27 -55 85 0
-26 -7 -47 0
15 -68 86 0
9 -40 18 0
-42 -20 -74 0
-36 -92 39 0
27 -83 6 0
-15 -46 38 0
11 -35 -2 0
81 12 39 0
-36 -18 -7 0
86 -90 99 0
-54 -85 18 0
-88 4 99 0
92 58 15 0
98 72 -62 0
44 28 7 0
-74 33 63 0
9 36 34 0
-87 44 98 0
50 92 80 0
100 28 -91 0
34 -95 -40 0
87 -95 33 0
72 29 -50 0
3 -61 81 0
-43 36 -37 0
13 -95 60 0
59 -5 -54 0
40 -28 -61 0
-70 -86 -61 0
50 69 -14 0
-80 49 -99 0
6 -69 23 0
-16 97 -7 0
-93 4 -71 0
76 58 77 0
81 -4 -45 0
93 -19 -55 0
-45 -46 37 0
5 -3 19 0
99 23 -62 0
1 -52 19 0
67 76 14 0
60 34 -45 0
-12 -39 93 0
-80 -45 -57 0
-22 -84 -74 0
60 10 -49 0
-74 -14 -56 0
21 26 72 0
17 -71 44 0
-26 52 51 0
-20 23 42 0
-89 -50 48 0
-23 -24 -96 0
73 -83 71 0
47 -64 79 0
-1 -72 -21 0
9 78 -49 0
76 34 -26 0
37 -49 83 0
-34 28 -85 0
-95 -82 71 0
8 -95 -88 0
62 -35 -28 0
-62 -42 81 0
-63 -30 65 0
-44 14 -86 0
-61 -45 -72 0
-8 89 -76 0
-76 98 -77 0
80 41 -11 0
78 -19 -85 0
-62 -4 -100 0
-56 69 -18 0
-38 -13 -16 0
-37 99 6 0
38 91 -58 0
-78 96 61 0
82 -77 32 0
-35 15 -99 0
15 65 -28 0
84 -99 -87 0
-5 91 -9 0
20 45 56 0
71 -28 81 0
49 12 11 0
86 12 -28 0
14 89 10 0
