c Coffinhead hard-core n=100 seed=8 ratio=4.0
p cnf 100 400
-89 -65 35 0
-43 -54 -70 0
54 88 14 0
98 -67 -44 0
54 -47 -72 0
24 -95 -97 0
-26 -21 -74 0
-38 17 88 0
61 -45 94 0
96 54 -51 0
-23 -32 -87 0
97 -69 -57 0
-46 82 10 0
-51 34 77 0
-63 66 -88 0
75 52 -88 0
-86 -9 77 0
-32 -91 59 0
-45 -52 82 0
97 36 78 0
-69 76 -49 0
-7 17 -49 0
75 6 -43 0
-81 -77 5 0
52 -94 87 0
92 -77 42 0
94 -42 -47 0
-79 100 7 0
-7 -75 92 0
-77 -56 35 0
-30 2 23 0
-74 98 17 0
33 -30 -58 0
-71 -49 59 0
-7 -88 -21 0
88 -63 -99 0
37 -19 -75 0
45 -83 95 0
-77 -59 -63 0
29 -4 18 0
-14 16 92 0
-91 85 73 0
77 -10 6 0
-3 -16 -59 0
-36 55 -69 0
48 71 -50 0
80 60 75 0
-30 -4 96 0
-100 -46 26 0
-67 -54 61 0
7 44 59 0
47 -94 57 0
-1 97 8 0
31 57 55 0
-48 -96 -22 0
91 -2 -76 0
-23 78 49 0
-12 1 -98 0
12 -44 69 0
43 86 -11 0
-34 -26 -64 0
97 -68 51 0
-35 -94 62 0
-95 -89 -91 0
92 95 27 0
38 -71 80 0
8 14 40 0
-5 -17 -55 0
56 53 11 0
63 75 72 0
-21 18 -100 0
41 19 -52 0
68 36 -63 0
34 82 21 0
83 67 69 0
41 -53 10 0
12 61 -80 0
-68 14 -4 0
29 63 -12 0
-100 95 -67 0
-87 98 89 0
-72 3 30 0
63 -70 -16 0
72 -69 47 0
14 -63 -94 0
100 -83 54 0
-44 -45 -87 0
91 22 -11 0
13 40 60 0
35 -14 87 0
73 63 74 0
-93 89 34 0
83 66 17 0
-78 13 39 0
76 88 -55 0
25 -65 72 0
-14 -11 49 0
64 -16 8 0
-17 76 -85 0
50 47 33 0
2 60 57 0
80 94 -68 0
32 63 29 0
5 32 2 0
84 -14 -29 0
77 57 81 0
-69 91 -56 0
-33 79 -40 0
8 -30 -78 0
19 -61 65 0
-47 3 59 0
-94 40 6 0
-44 33 -46 0
-26 9 -70 0
-22 -61 -28 0
-18 -37 84 0
-39 76 74 0
21 -91 -15 0
-22 -75 51 0
-11 -80 45 0
35 -52 -11 0
-24 -57 14 0
-91 64 40 0
-71 95 27 0
-39 -87 -92 0
-31 84 61 0
-27 68 -81 0
-75 16 -11 0
-68 53 46 0
67 60 -96 0
85 -83 -66 0
-85 -50 -6 0
-37 -27 -84 0
65 11 54 0
74 13 51 0
50 -31 -32 0
-25 -95 -6 0
-87 91 49 0
3 -30 13 0
40 51 -95 0
-18 -81 -77 0
34 19 -46 0
1 27 54 0
17 35 -27 0
1 -25 -80 0
-16 82 48 0
-78 -37 -38 0
28 -82 5 0
-5 -37 -19 0
64 -21 -45 0
67 -41 18 0
-68 46 97 0
16 -38 44 0
90 48 100 0
56 -46 -64 0
-29 89 -71 0
-64 -20 -92 0
-30 -8 87 0
-33 74 -75 0
47 61 54 0
44 8 -32 0
82 95 -63 0
-37 -11 4 0
-19 -58 -18 0
87 -55 11 0
-58 20 -65 0
-6 78 -59 0
-29 -19 49 0
94 -44 23 0
-65 -67 -82 0
14 60 69 0
56 -39 -63 0
-87 -2 -32 0
15 29 -22 0
-70 27 7 0
38 20 -60 0
17 -25 -64 0
-88 91 86 0
-18 -78 -59 0
-26 -81 94 0
97 32 61 0
13 -38 20 0
78 -49 -26 0
-10 -56 12 0
79 -65 75 0
-5 -16 76 0
-53 22 6 0
15 -7 -77 0
-37 -10 -96 0
-88 -70 61 0
-84 -77 1 0
62 82 -12 0
26 59 -100 0
-46 -28 -24 0
-20 -12 58 0
44 -11 -42 0
-55 -50 -53 0
-89 -28 -82 0
15 38 67 0
-66 16 -71 0
-78 1 56 0
25 -11 97 0
-80 18 66 0
26 87 8 0
49 4 -71 0
-23 13 18 0
48 -82 8 0
11 -53 -86 0
72 -63 19 0
-99 90 -5 0
-4 -5 100 0
-54 34 45 0
67 -39 89 0
-73 -56 -77 0
-77 2 -99 0
48 -24 -20 0
90 -3 -60 0
-28 13 19 0
63 -56 -8 0
-96 -24 -31 0
98 35 -45 0
48 25 63 0
-78 -37 74 0
18 -92 9 0
82 -63 59 0
-38 77 56 0
-65 -14 52 0
98 -97 28 0
-12 23 24 0
13 -39 -80 0
19 -10 -49 0
-84 49 83 0
-3 -70 -51 0
-91 27 -94 0
-28 -18 -33 0
-52 1 21 0
98 -71 13 0
-65 72 -27 0
-19 21 -48 0
97 89 -60 0
88 62 -18 0
-39 29 78 0
28 -13 -23 0
77 92 -31 0
75 56 22 0
-38 -54 -67 0
33 -59 95 0
69 82 81 0
-71 89 -83 0
-74 12 -82 0
95 -96 -51 0
72 83 60 0
-79 40 70 0
-5 -16 10 0
-46 -16 -63 0
40 -66 -77 0
94 -69 42 0
88 100 -65 0
29 53 85 0
-2 27 -78 0
25 58 88 0
-53 -92 -75 0
35 61 71 0
36 27 -13 0
-24 67 -95 0
-37 17 -32 0
80 -78 99 0
-22 19 -72 0
-59 -3 -57 0
-3 4 65 0
56 13 -10 0
53 96 -36 0
72 30 -43 0
-98 -15 38 0
95 3 64 0
4 -60 -68 0
89 -27 -23 0
-2 -25 98 0
98 -4 86 0
-79 -93 37 0
90 -57 92 0
49 25 85 0
37 81 -11 0
-30 -73 35 0
26 76 -94 0
58 1 5 0
-11 -71 9 0
-37 27 -73 0
-21 80 55 0
-62 -7 -92 0
50 -58 70 0
40 -22 -82 0
45 -56 -34 0
40 55 -63 0
-63 -73 -24 0
69 14 44 0
45 -8 21 0
97 -37 -31 0
16 39 100 0
14 -36 32 0
29 -33 -45 0
-80 -88 65 0
62 -74 -31 0
55 -25 22 0
-66 99 -31 0
-44 46 31 0
95 -72 -89 0
-61 -7 -69 0
3 -35 67 0
55 79 -65 0
95 60 -53 0
92 -27 -54 0
60 -56 -21 0
82 -52 24 0
37 -70 -92 0
-36 -81 -56 0
-75 -87 -2 0
93 -10 -38 0
90 29 30 0
-86 -11 10 0
-54 27 -68 0
-14 44 75 0
-17 75 79 0
-73 -15 13 0
56 -69 -96 0
-44 -57 91 0
82 79 -63 0
-24 -41 65 0
-5 37 -4 0
-67 -33 -23 0
-44 -29 -90 0
60 38 -86 0
-47 -60 31 0
10 -100 88 0
-65 42 33 0
-14 57 -5 0
-17 -96 -63 0
-94 -13 -40 0
-79 15 -76 0
21 42 86 0
-36 -94 53 0
-74 57 36 0
79 -94 49 0
-56 85 -78 0
-98 -83 -46 0
-64 -37 -31 0
57 7 44 0
-67 82 87 0
-84 -39 -88 0
-93 -48 -27 0
15 77 -10 0
-30 -28 65 0
-32 80 5 0
40 3 -98 0
-5 -63 36 0
-11 54 -70 0
88 -42 -13 0
56 -96 -18 0
-24 -72 26 0
-64 -39 -6 0
14 72 2 0
98 22 35 0
-77 -90 -96 0
20 -56 -55 0
-68 -24 -44 0
-96 -98 -27 0
-46 30 -8 0
-94 -92 -59 0
-24 -18 -86 0
-30 -97 92 0
8 52 -61 0
-23 -21 30 0
-81 80 12 0
95 -40 -93 0
83 67 -86 0
48 -18 -44 0
-18 -81 14 0
-27 47 -71 0
75 86 -97 0
46 18 -53 0
13 -27 90 0
-24 -96 -62 0
15 39 70 0
-29 -9 77 0
12 56 -69 0
83 -7 -12 0
67 -41 18 0
-92 -4 -99 0
26 -79 -42 0
9 -84 4 0
75 -89 -29 0
-29 -76 77 0
-78 66 -86 0
54 -100 86 0
62 -61 -44 0
4 -23 74 0
-53 19 54 0
-90 68 -11 0
-56 43 19 0
79 63 77 0
