c Coffinhead hard-core n=15 seed=156 ratio=4.0
p cnf 15 60
-4 8 1 0
8 5 11 0
-13 -1 15 0
-7 -11 -10 0
7 3 4 0
-13 1 12 0
-14 -12 -10 0
3 13 7 0
11 -10 -8 0
-9 11 5 0
4 3 11 0
-1 -15 -5 0
-1 8 4 0
-4 11 3 0
-9 15 6 0
-15 -9 12 0
-15 2 10 0
-1 -14 -13 0
-1 4 2 0
15 4 2 0
11 -12 -5 0
3 1 -4 0
1 6 -7 0
8 -14 1 0
7 11 10 0
-15 -14 -7 0
-4 -6 10 0
-15 -10 -12 0
-9 7 13 0
11 3 -10 0
-15 -7 -14 0
-15 -14 10 0
4 -12 9 0
1 -14 -6 0
5 -15 -9 0
-7 -15 11 0
-10 14 3 0
-5 -4 -3 0
6 2 8 0
-6 2 11 0
14 -3 2 0
-10 9 -14 0
-14 -13 7 0
-15 9 -8 0
10 6 13 0
-15 14 -9 0
4 5 8 0
-4 -9 13 0
-8 -9 -3 0
5 -1 9 0
-3 9 -12 0
8 -6 5 0
-6 -13 -10 0
-7 -2 3 0
12 7 6 0
7 -14 -5 0
7 -11 12 0
14 -11 -2 0
-3 4 5 0
-1 -8 -6 0
