c Coffinhead hard-core n=15 seed=29 ratio=4.0
p cnf 15 60
6 1 7 0
-15 10 -12 0
-11 -14 -9 0
12 -5 -7 0
8 4 -12 0
10 6 8 0
4 15 12 0
2 15 -7 0
14 -1 -13 0
12 1 -6 0
14 2 5 0
-1 15 4 0
-15 -5 -13 0
-6 -1 7 0
4 -15 5 0
-7 13 -4 0
-7 9 -6 0
-11 -5 -3 0
10 -11 3 0
-7 -3 -6 0
-7 -1 -3 0
-4 9 -2 0
10 -13 6 0
-9 14 11 0
-6 13 -10 0
-5 -15 2 0
-11 1 13 0
11 -5 -12 0
-15 12 -5 0
13 -6 -15 0
4 -1 12 0
-1 -8 15 0
-12 -7 -14 0
6 1 15 0
-14 -9 -15 0
11 9 -6 0
-13 -1 -3 0
-8 10 -3 0
5 8 -10 0
4 -3 12 0
7 14 -13 0
14 4 -15 0
1 -13 -8 0
8 15 2 0
15 -9 -10 0
13 3 1 0
-7 -10 -5 0
13 3 -5 0
-12 8 5 0
-1 13 -11 0
-7 -12 -4 0
11 -10 -1 0
12 1 -9 0
13 -14 -12 0
2 -13 14 0
7 9 1 0
-1 -12 6 0
-7 -10 -5 0
-4 14 10 0
3 -7 -4 0
