c Coffinhead hard-core n=15 seed=87 ratio=4.0
p cnf 15 60
-14 -1 -12 0
-14 13 5 0
-6 11 -7 0
-11 9 -4 0
9 6 12 0
-4 14 10 0
-10 -9 -3 0
-12 10 5 0
14 13 -7 0
-8 10 -13 0
-12 4 14 0
-2 -9 -13 0
-5 -6 -8 0
11 3 -5 0
-13 -7 12 0
-6 8 12 0
14 5 11 0
-1 6 11 0
11 -2 -6 0
3 -10 4 0
-4 -7 2 0
-15 14 -4 0
10 1 -15 0
-6 3 1 0
11 8 -12 0
15 -2 -6 0
10 3 -14 0
3 6 8 0
-3 10 -12 0
-6 8 -4 0
7 12 13 0
-13 8 2 0
3 6 -4 0
8 -7 5 0
1 10 -3 0
-14 11 -5 0
10 -12 2 0
-10 -13 9 0
1 11 4 0
-8 11 -7 0
11 13 2 0
-5 15 14 0
-4 9 15 0
-6 -5 -10 0
-15 -14 2 0
-11 -4 -3 0
-15 1 -13 0
-3 -9 -4 0
14 -12 1 0
12 -7 -6 0
-9 3 10 0
-7 -8 -9 0
-8 4 11 0
11 -13 -14 0
11 10 -3 0
-2 9 -8 0
1 -10 -11 0
10 -5 -14 0
9 -5 -2 0
10 12 -9 0
