c Coffinhead hard-core n=15 seed=64 ratio=4.0
p cnf 15 60
-10 -1 -14 0
-10 -6 13 0
-8 -4 -11 0
8 -6 -7 0
14 10 -1 0
-10 -9 13 0
10 6 -13 0
-2 -10 15 0
-14 7 2 0
-15 6 -11 0
-6 -9 -4 0
6 -15 -3 0
-9 2 -5 0
11 4 -1 0
11 -10 9 0
3 8 -5 0
7 -3 12 0
-5 -13 -11 0
-12 -10 -9 0
-2 9 4 0
-1 -9 -10 0
12 -1 -2 0
9 -5 11 0
-8 -10 5 0
2 4 -11 0
-2 -1 10 0
-9 4 5 0
10 -1 -4 0
4 14 15 0
-8 -6 4 0
-3 -1 -11 0
2 4 -11 0
5 4 10 0
6 -5 -4 0
-13 -9 -2 0
-4 6 9 0
13 14 8 0
-6 9 -2 0
-7 -4 -6 0
8 1 9 0
-12 -4 6 0
3 9 -14 0
4 1 -5 0
-2 -6 11 0
-11 6 4 0
-12 8 2 0
7 10 15 0
-13 -5 6 0
-13 15 -1 0
1 10 -4 0
-11 15 -5 0
-8 7 15 0
-1 -5 8 0
-14 4 8 0
-11 -6 3 0
10 -2 15 0
-1 -8 -13 0
6 1 11 0
-4 3 10 0
-4 14 -12 0
