c Coffinhead hard-core n=15 seed=69 ratio=4.0
p cnf 15 60
15 8 -7 0
-1 -12 5 0
-14 10 15 0
10 -15 -8 0
8 -2 4 0
12 -4 -3 0
-5 9 4 0
2 12 -9 0
1 -2 6 0
9 2 7 0
2 -5 6 0
-8 11 -9 0
-11 15 -1 0
-13 1 9 0
-8 5 2 0
6 -14 -4 0
-14 5 6 0
-5 11 8 0
12 11 10 0
-2 6 5 0
-11 13 8 0
10 7 -11 0
-9 1 -8 0
9 -3 -13 0
-13 -11 -6 0
-15 6 2 0
-5 6 10 0
-8 12 -11 0
11 6 3 0
2 9 6 0
10 -3 -6 0
12 5 -14 0
-5 9 -15 0
13 15 -3 0
9 -4 -15 0
5 4 9 0
-6 -12 -10 0
-8 10 4 0
-12 -13 -9 0
1 -15 8 0
9 -4 10 0
9 6 -15 0
2 -8 3 0
15 -2 -4 0
7 -6 -8 0
-4 -5 -1 0
11 8 14 0
1 -2 8 0
15 10 14 0
10 3 -8 0
2 14 -9 0
1 15 -3 0
-10 14 7 0
8 3 15 0
2 -9 -13 0
1 8 -7 0
-14 -8 7 0
10 14 1 0
-8 11 2 0
-3 -10 -15 0
