c Coffinhead hard-core n=15 seed=3 ratio=4.0
p cnf 15 60
-4 5 -9 0
1 2 -3 0
-6 -14 -11 0
-3 13 -7 0
11 -13 -1 0
1 2 -11 0
-2 9 3 0
-11 5 2 0
11 14 8 0
13 3 -8 0
12 15 1 0
-5 -3 -15 0
-11 -6 -1 0
9 -5 -15 0
14 2 -7 0
-10 -3 14 0
7 9 -4 0
13 -11 -9 0
4 10 -7 0
2 5 -7 0
-9 -15 5 0
8 -13 -11 0
-1 -12 15 0
10 -5 -4 0
12 -4 -1 0
7 14 4 0
-1 3 -11 0
-3 8 -4 0
-9 6 -12 0
2 -15 -10 0
5 15 -14 0
10 12 6 0
-14 -13 -7 0
6 -1 -10 0
2 -7 3 0
-9 -2 -4 0
-8 1 4 0
-1 6 -5 0
-7 8 15 0
13 14 3 0
-7 15 -9 0
11 10 -15 0
-5 12 -6 0
2 -3 12 0
-5 8 -15 0
-13 5 11 0
3 4 13 0
-14 11 13 0
10 13 -5 0
15 13 4 0
-4 7 11 0
12 10 -2 0
-6 -14 -3 0
-6 -2 11 0
9 -5 -6 0
5 4 -1 0
13 9 -15 0
-13 5 1 0
-1 15 -9 0
2 -10 14 0
