c Coffinhead hard-core n=15 seed=137 ratio=4.0
p cnf 15 60
11 7 -3 0
12 15 2 0
-6 5 12 0
6 11 -9 0
14 10 7 0
-7 -15 1 0
10 1 -14 0
-14 5 -12 0
8 5 4 0
3 14 -2 0
-12 -7 -4 0
-1 -11 -3 0
-15 4 5 0
-13 -3 1 0
3 -7 4 0
-3 8 -12 0
13 -2 -4 0
15 -9 -8 0
-9 10 6 0
12 -6 -7 0
5 1 -13 0
-1 5 2 0
-10 14 13 0
-1 -6 9 0
-12 -1 10 0
6 7 12 0
-11 -10 13 0
-13 -14 -4 0
5 13 4 0
-6 7 -3 0
-6 -5 -1 0
-12 -6 13 0
3 10 -6 0
4 12 -1 0
-13 5 -11 0
-8 -4 5 0
-5 11 15 0
9 2 6 0
-11 13 4 0
5 -14 -11 0
-9 2 -14 0
-9 -5 -6 0
-5 -15 -14 0
-13 -1 -9 0
-4 -12 9 0
13 -12 15 0
-12 7 -6 0
-4 -6 13 0
2 -15 -4 0
-5 12 1 0
3 -6 7 0
-13 -11 -2 0
-6 8 11 0
14 -1 -8 0
11 4 14 0
-15 -12 2 0
3 5 -10 0
-13 -8 -5 0
14 -1 -6 0
4 12 -5 0
