c Coffinhead hard-core n=15 seed=112 ratio=4.0
p cnf 15 60
-13 2 -1 0
-11 -14 12 0
15 7 -12 0
12 -8 10 0
-10 1 9 0
-5 7 8 0
-2 14 -3 0
-7 15 8 0
9 -12 -5 0
2 3 15 0
-10 -5 -9 0
-4 5 12 0
-12 5 11 0
5 13 7 0
-10 -4 12 0
11 -7 3 0
4 -10 1 0
-12 15 7 0
10 -5 11 0
7 -8 -6 0
15 -10 6 0
9 -7 -8 0
10 -9 8 0
-15 14 6 0
-2 6 -12 0
6 -10 -3 0
4 5 -12 0
3 -5 7 0
-12 11 -13 0
-14 -15 4 0
-1 4 6 0
-5 -11 -12 0
2 -15 -12 0
14 -9 -1 0
-4 9 -8 0
-7 13 11 0
7 -8 2 0
-1 -11 -15 0
-14 -11 -7 0
11 -13 8 0
-1 -6 -2 0
11 9 -3 0
-12 -5 6 0
-13 11 5 0
-6 8 9 0
-6 15 -14 0
3 -1 -7 0
7 -14 -9 0
-9 6 2 0
7 -10 -1 0
-2 10 15 0
7 2 -8 0
-11 -3 -1 0
2 15 8 0
12 -15 13 0
3 -6 12 0
-7 -14 -8 0
-7 8 -12 0
-12 -10 -15 0
1 -7 8 0
