c Coffinhead hard-core n=15 seed=2 ratio=4.0
p cnf 15 60
13 -2 14 0
-13 3 -14 0
15 12 9 0
-2 15 -12 0
-11 -10 -8 0
-4 9 -15 0
9 -13 -4 0
9 -3 -7 0
-9 -1 12 0
-7 -6 9 0
-6 9 -14 0
6 -1 -2 0
-8 -14 15 0
-1 12 5 0
8 4 14 0
14 -15 -13 0
10 -8 -2 0
11 -1 8 0
-11 -1 -4 0
7 5 2 0
10 4 -5 0
5 3 11 0
-10 -3 -14 0
-13 8 -11 0
12 -5 10 0
-12 -2 -9 0
-15 13 2 0
-10 7 -2 0
7 -11 2 0
-6 -1 4 0
9 15 -4 0
12 5 -7 0
13 8 15 0
-6 5 14 0
-6 4 8 0
-2 3 -12 0
1 -4 -10 0
12 6 9 0
10 -2 8 0
4 -6 7 0
10 7 -1 0
15 14 -1 0
15 12 10 0
-3 10 13 0
-3 -9 -5 0
6 13 -11 0
-2 6 8 0
14 -5 -7 0
8 -12 15 0
9 12 -7 0
-3 1 -13 0
-13 15 4 0
4 5 7 0
-14 11 -3 0
8 12 1 0
3 1 -6 0
-15 -5 -1 0
-12 -8 6 0
6 15 11 0
-9 10 -7 0
