c Coffinhead hard-core n=15 seed=155 ratio=4.0
p cnf 15 60
-11 -15 -5 0
2 -4 7 0
3 -14 11 0
12 -1 4 0
9 10 14 0
-4 11 -13 0
-4 12 2 0
-2 3 12 0
-7 -2 11 0
4 10 7 0
-14 6 4 0
13 15 -4 0
1 -13 -12 0
4 -9 -15 0
8 -1 15 0
-7 -9 -11 0
13 9 15 0
-1 -15 -13 0
-11 6 -12 0
3 -6 -14 0
11 4 -8 0
8 11 -10 0
13 -6 -14 0
-13 -8 11 0
5 -14 -2 0
4 -10 2 0
-15 -2 -13 0
-2 -9 -4 0
3 12 2 0
4 -7 6 0
13 -1 -10 0
6 -3 -12 0
-8 4 -9 0
-13 15 -3 0
3 -13 8 0
1 11 -15 0
5 -3 6 0
-3 6 -8 0
-6 4 -9 0
-6 13 3 0
-9 -7 -12 0
13 -2 -9 0
5 15 -6 0
1 -8 -5 0
-3 -12 8 0
-14 8 -3 0
10 15 13 0
-1 12 15 0
7 -9 -8 0
10 -6 -13 0
2 -10 5 0
-2 -10 -14 0
-12 -10 11 0
11 8 1 0
1 -7 12 0
10 -7 3 0
13 -6 -8 0
2 -13 -3 0
-3 8 9 0
-8 7 4 0
