c Coffinhead hard-core n=15 seed=162 ratio=4.0
p cnf 15 60
5 -3 -7 0
-9 -3 -13 0
-14 3 9 0
15 -2 11 0
-3 -12 14 0
12 -6 -14 0
5 -11 2 0
-6 5 4 0
8 -14 -1 0
10 -5 11 0
-1 10 8 0
12 -13 -11 0
-13 -12 -7 0
-13 3 -6 0
1 -8 10 0
12 -11 -15 0
-15 -12 -13 0
1 -13 7 0
3 2 -10 0
-7 6 13 0
-1 -6 -5 0
9 15 -3 0
-5 -6 3 0
3 8 -9 0
10 -9 -14 0
-15 -1 12 0
-2 -7 -3 0
13 4 12 0
-12 -4 2 0
2 4 3 0
-4 11 -10 0
10 -5 -7 0
15 12 -3 0
4 9 1 0
-10 1 3 0
-8 13 -9 0
7 -4 -1 0
14 -2 -1 0
-13 -2 15 0
3 -8 -7 0
1 9 -11 0
-3 9 -15 0
-10 -11 -7 0
6 -15 -5 0
-7 -3 9 0
-15 13 -12 0
8 -10 11 0
14 1 -10 0
-15 -4 1 0
-14 -9 -1 0
9 6 10 0
-1 4 7 0
12 -6 -8 0
-12 -1 6 0
-9 12 -11 0
1 -5 -7 0
9 -14 1 0
-14 8 -11 0
12 -11 -15 0
-11 7 12 0
