c Coffinhead hard-core n=15 seed=60 ratio=4.0
p cnf 15 60
-1 15 -14 0
5 -15 11 0
13 -3 10 0
11 10 -15 0
-12 -6 13 0
13 -12 14 0
-4 -8 -11 0
12 14 -9 0
-14 -10 -5 0
-6 7 15 0
13 1 -10 0
11 -10 -5 0
-4 -10 -5 0
-1 -3 12 0
11 9 15 0
5 14 -4 0
-3 -6 13 0
8 -14 -13 0
9 -12 -7 0
7 4 -6 0
-2 -7 -9 0
13 -8 -6 0
14 -3 9 0
-4 10 12 0
-11 4 5 0
-15 14 -12 0
12 -10 -7 0
-14 12 -5 0
-1 8 -14 0
9 7 1 0
-6 -3 2 0
-8 11 4 0
-14 3 2 0
11 15 4 0
-4 -2 1 0
13 5 -14 0
3 7 -5 0
6 -5 8 0
-4 11 8 0
-6 -10 -8 0
14 -9 -7 0
-4 13 -11 0
-12 7 -8 0
-11 10 14 0
9 -8 -10 0
-12 -1 8 0
-3 -5 -14 0
1 -15 -3 0
6 9 -15 0
-3 5 10 0
10 -7 -13 0
-3 -2 -8 0
10 -8 -12 0
-5 -3 10 0
5 -2 -14 0
-15 -3 5 0
-7 -1 3 0
-6 10 -2 0
1 14 -7 0
-15 12 5 0
