c Coffinhead hard-core n=15 seed=124 ratio=4.0
p cnf 15 60
-9 10 -5 0
5 -13 -9 0
2 -3 -7 0
11 1 6 0
13 2 -5 0
-6 -13 15 0
-12 -6 7 0
1 -15 6 0
3 -4 -6 0
12 8 -11 0
9 13 -14 0
-5 -2 -4 0
13 8 -11 0
3 4 8 0
15 -1 -8 0
-8 11 7 0
15 14 -2 0
7 -1 11 0
-13 -14 -1 0
2 -4 7 0
-1 3 15 0
14 -9 7 0
-14 9 -3 0
11 -9 14 0
4 2 -8 0
10 9 -2 0
-5 -13 -4 0
13 -9 -12 0
-10 -6 5 0
-1 -7 14 0
-4 -14 -15 0
11 7 2 0
9 6 1 0
15 -2 3 0
12 -10 8 0
1 9 -11 0
-3 5 12 0
10 15 2 0
-14 -2 -4 0
-1 13 2 0
6 5 11 0
6 -8 13 0
13 -10 -5 0
11 8 -2 0
-9 12 2 0
-8 -14 5 0
-3 6 1 0
5 -6 8 0
-6 -2 8 0
-10 -3 5 0
-5 -13 -15 0
15 -7 -9 0
-14 13 -1 0
11 13 -8 0
15 8 7 0
-3 -7 -1 0
10 6 -14 0
13 10 3 0
13 -15 2 0
7 -12 15 0
