c Coffinhead hard-core n=15 seed=63 ratio=4.0
p cnf 15 60
-7 -15 -8 0
-5 10 -4 0
15 -11 3 0
8 1 -12 0
-13 -1 2 0
10 6 5 0
-13 -2 14 0
-15 12 10 0
11 8 3 0
11 -5 -7 0
6 -7 -9 0
-13 -5 4 0
10 14 -15 0
-9 14 6 0
-12 -4 1 0
10 -9 -6 0
-8 10 13 0
-15 4 5 0
8 -2 10 0
-9 2 -8 0
4 -1 -3 0
2 -3 -14 0
-1 13 -5 0
10 7 -14 0
3 -13 -12 0
12 -5 -1 0
8 -4 2 0
-9 -11 -8 0
-11 13 -4 0
-6 -14 -8 0
-1 -7 3 0
-3 1 -14 0
-14 2 3 0
5 -4 -3 0
11 12 4 0
-13 4 -5 0
15 13 -11 0
-6 -5 8 0
13 -6 11 0
-3 -4 15 0
14 12 15 0
-3 -8 1 0
15 3 4 0
8 1 -5 0
14 -13 -7 0
-10 -8 12 0
-10 -5 -4 0
12 -10 11 0
9 2 -6 0
-2 14 -7 0
-13 -1 8 0
-7 10 -11 0
-6 1 8 0
5 -6 -3 0
11 -5 -8 0
-10 -8 11 0
-14 8 10 0
-8 -3 7 0
14 -7 -3 0
-12 4 7 0
