c Coffinhead hard-core n=15 seed=13 ratio=4.0
p cnf 15 60
4 12 5 0
-15 -3 -5 0
7 -11 -5 0
-1 13 -14 0
10 14 -4 0
-14 5 -11 0
14 -9 6 0
4 -1 13 0
-7 14 15 0
-9 15 -10 0
-10 6 -15 0
4 -8 15 0
4 -13 12 0
-14 9 -3 0
11 -12 15 0
15 5 -2 0
-15 9 -1 0
-4 -3 -5 0
5 -14 -13 0
15 12 13 0
10 -6 -3 0
-5 4 9 0
13 -14 -9 0
13 -8 -7 0
-7 -1 -9 0
5 1 -8 0
-12 -10 -9 0
15 -8 -7 0
3 -7 13 0
-15 7 -13 0
13 -6 -12 0
-4 2 14 0
-12 -2 5 0
2 -7 9 0
8 -2 -11 0
7 8 -4 0
5 11 12 0
15 12 3 0
-5 7 -14 0
-2 6 -7 0
12 8 -13 0
-14 6 13 0
2 11 -6 0
-4 -1 10 0
-13 -5 6 0
-3 9 10 0
-9 12 2 0
8 7 9 0
-10 12 3 0
2 10 -7 0
-5 -2 -12 0
-10 -5 -14 0
4 -3 7 0
7 -13 5 0
4 -15 -14 0
-2 -15 -13 0
8 -4 5 0
-12 -1 -13 0
12 9 14 0
-11 -10 9 0
