c Coffinhead hard-core n=15 seed=104 ratio=4.0
p cnf 15 60
-10 -7 -3 0
-14 -4 9 0
-5 -1 -11 0
-5 -4 -8 0
3 6 13 0
6 13 2 0
-4 -5 -15 0
8 -9 -6 0
-11 -2 10 0
-4 15 13 0
9 -4 15 0
7 -10 -11 0
10 -5 9 0
-2 -5 11 0
12 -5 11 0
7 -11 5 0
-6 1 -2 0
14 13 8 0
-3 -15 4 0
-12 3 5 0
4 15 11 0
-13 -12 3 0
13 -14 2 0
15 -14 -2 0
3 -4 14 0
15 4 -10 0
-12 -4 -5 0
3 10 -15 0
-13 15 14 0
3 8 -9 0
-4 9 -13 0
10 -5 6 0
-13 -5 -11 0
14 -1 5 0
-8 7 12 0
7 -11 -2 0
4 -1 -14 0
11 -6 7 0
-13 -11 -3 0
-14 6 1 0
-11 8 -13 0
5 9 7 0
-13 3 11 0
4 14 -7 0
10 13 -2 0
9 -6 7 0
-5 -8 12 0
15 -12 10 0
6 -15 -9 0
13 -1 -2 0
-7 -6 -15 0
-4 -8 1 0
-8 -3 -9 0
-4 3 15 0
2 15 -1 0
-11 -1 -2 0
11 -15 4 0
-9 -1 -14 0
14 15 -7 0
-15 11 2 0
