c Coffinhead hard-core n=15 seed=132 ratio=4.0
p cnf 15 60
-1 -5 15 0
12 11 5 0
5 8 11 0
6 -9 -1 0
-3 12 -9 0
4 14 -10 0
-8 -13 -15 0
-6 -10 9 0
13 -4 -6 0
10 4 -5 0
-7 -4 10 0
13 -8 14 0
-15 11 1 0
5 13 3 0
-2 -14 -3 0
-7 13 -11 0
-2 -1 -5 0
-9 7 -1 0
7 -14 9 0
15 8 -1 0
-11 12 -1 0
-14 -9 -4 0
14 1 -8 0
-13 3 4 0
-5 -6 9 0
4 -13 -9 0
12 10 2 0
-3 8 5 0
-14 5 6 0
12 10 1 0
-6 10 -14 0
-6 -11 -4 0
9 13 14 0
7 -15 4 0
6 -8 -5 0
1 -14 -3 0
-6 -12 -4 0
-8 -3 -4 0
14 8 -2 0
-9 2 -14 0
-8 5 10 0
4 10 8 0
-14 8 4 0
12 -1 2 0
-5 2 -7 0
7 1 10 0
1 8 6 0
-13 -8 -5 0
-8 12 -1 0
-3 -13 -7 0
9 7 -14 0
-6 11 7 0
7 -12 -14 0
-9 13 -1 0
-6 14 1 0
1 4 9 0
14 -2 -8 0
-14 15 8 0
-6 -4 15 0
12 -5 -13 0
