c Coffinhead hard-core n=15 seed=41 ratio=4.0
p cnf 15 60
7 9 1 0
4 -11 12 0
13 -5 -2 0
6 -11 14 0
5 -7 10 0
-5 13 12 0
5 7 -2 0
-3 9 14 0
-2 -14 12 0
8 -4 -7 0
-6 -3 10 0
-5 -13 -7 0
-12 9 -1 0
-1 11 3 0
12 -13 -9 0
-10 -11 3 0
-3 15 1 0
10 -12 -4 0
11 9 -7 0
-1 -5 2 0
12 2 -15 0
4 9 -2 0
4 -13 -6 0
3 6 -1 0
12 -4 -13 0
13 -12 7 0
13 -1 10 0
-1 13 -9 0
-5 14 -6 0
-5 -9 11 0
13 -12 9 0
-14 10 1 0
11 -10 -2 0
-6 -8 -7 0
14 1 15 0
7 -5 8 0
3 -6 9 0
3 6 -2 0
4 11 -5 0
-14 -9 13 0
-12 5 -9 0
-15 14 5 0
-3 15 -9 0
-11 4 3 0
1 8 -11 0
-2 4 15 0
-2 -6 -5 0
-14 2 6 0
-5 -15 3 0
15 10 -5 0
-12 8 -10 0
11 -9 5 0
8 13 5 0
13 14 7 0
9 2 -14 0
7 4 11 0
-5 -8 -4 0
-4 -15 -14 0
-15 14 -7 0
4 -1 -10 0
