c Coffinhead hard-core n=15 seed=122 ratio=4.0
p cnf 15 60
5 4 -2 0
-14 2 8 0
2 15 -14 0
-6 8 10 0
5 3 -14 0
-13 3 6 0
-1 5 -6 0
7 -6 12 0
-1 6 -12 0
-5 8 -9 0
-1 7 -3 0
-9 -2 -8 0
-3 8 -2 0
12 15 -7 0
-2 -3 -14 0
-4 -6 3 0
9 -1 14 0
-1 4 15 0
-14 -6 -9 0
-1 -5 8 0
-8 -7 -10 0
13 10 2 0
7 -2 -3 0
8 3 -1 0
9 11 2 0
6 12 8 0
4 11 -12 0
13 14 6 0
-6 -13 9 0
8 -6 -12 0
7 12 9 0
15 -13 -2 0
-9 11 4 0
8 -2 10 0
-15 6 1 0
-10 11 6 0
3 1 10 0
10 7 15 0
-4 -6 -15 0
-14 -13 15 0
-14 6 15 0
-6 3 -4 0
2 -8 4 0
15 10 3 0
-4 8 -14 0
9 -14 -4 0
-9 1 -6 0
-13 4 -12 0
-5 -12 3 0
-5 3 13 0
7 -13 9 0
-5 12 9 0
8 12 -15 0
4 -14 10 0
-13 -7 -9 0
-15 -12 -6 0
15 1 -8 0
3 14 12 0
14 4 -8 0
-3 4 6 0
