c Coffinhead hard-core n=15 seed=47 ratio=4.0
p cnf 15 60
-5 -2 4 0
15 5 1 0
14 -11 -1 0
-1 -14 -2 0
6 11 -5 0
-7 -10 6 0
3 -8 -15 0
-1 15 -3 0
11 -14 -9 0
-9 -5 -3 0
-15 -4 -9 0
14 10 5 0
-9 6 10 0
9 12 -7 0
15 2 -6 0
-9 -15 13 0
9 -10 6 0
7 15 6 0
14 5 -10 0
-5 -7 -6 0
-15 -9 2 0
15 -8 6 0
12 5 1 0
-2 -12 -14 0
9 12 -3 0
14 -8 5 0
10 7 8 0
-3 -11 15 0
6 -5 -1 0
-15 -9 -5 0
-6 -14 -10 0
8 -6 10 0
15 12 5 0
-13 3 -11 0
7 -8 -9 0
-12 -3 -10 0
-13 10 7 0
15 -10 1 0
-11 10 -7 0
1 5 -10 0
-9 14 8 0
4 -8 -10 0
11 15 -9 0
-13 9 12 0
-2 -5 -12 0
3 -14 12 0
2 12 -6 0
1 14 8 0
13 2 -12 0
3 -11 12 0
7 12 10 0
3 15 -8 0
-14 11 -10 0
1 -5 -6 0
7 -14 -10 0
11 10 -2 0
-13 11 -12 0
-3 11 -12 0
3 14 5 0
1 7 -11 0
