c Coffinhead hard-core n=15 seed=65 ratio=4.0
p cnf 15 60
7 11 14 0
9 -14 -6 0
12 9 2 0
-12 -11 9 0
-5 -7 3 0
-12 -11 9 0
9 -7 -13 0
-13 -7 -5 0
15 -4 -3 0
-10 2 5 0
-8 -9 3 0
-14 2 -13 0
9 7 3 0
14 9 -7 0
-3 -1 4 0
-13 15 11 0
-14 15 -2 0
-5 12 11 0
-9 10 -8 0
-9 10 14 0
-2 8 -15 0
2 15 8 0
-9 -3 7 0
10 13 9 0
-14 10 -12 0
7 13 11 0
4 -11 -13 0
4 -7 -5 0
5 -15 -8 0
13 -1 2 0
-11 -15 8 0
3 10 2 0
-3 -7 14 0
-5 6 -3 0
9 1 14 0
-6 -12 15 0
4 10 -8 0
8 -2 -3 0
8 9 -3 0
14 -4 -15 0
1 10 7 0
-3 -11 -15 0
8 -15 7 0
15 8 6 0
-15 -5 -4 0
6 -13 -14 0
3 -8 14 0
-7 -6 2 0
3 -5 8 0
8 -3 2 0
14 -11 12 0
-2 -15 5 0
-11 8 -4 0
-2 -11 -5 0
-8 -5 -11 0
10 -5 -8 0
-1 15 5 0
-1 6 -8 0
10 -12 3 0
8 -4 5 0
