c Coffinhead hard-core n=15 seed=95 ratio=4.0
p cnf 15 60
-2 -15 4 0
-9 5 -7 0
2 -5 -11 0
2 1 3 0
-5 13 -7 0
-13 1 -7 0
14 13 9 0
-7 9 6 0
-13 10 -4 0
15 -2 -14 0
-12 -10 13 0
-8 -13 4 0
10 -11 8 0
-6 15 14 0
13 -3 5 0
-8 -14 -13 0
-1 15 6 0
14 10 -2 0
11 -4 10 0
-9 -13 -2 0
10 14 -1 0
11 -10 -3 0
10 -6 -8 0
-2 3 -14 0
-6 9 -13 0
10 -1 15 0
6 -15 -1 0
7 -9 6 0
11 6 13 0
1 15 11 0
5 12 4 0
-6 15 13 0
3 8 9 0
4 12 7 0
10 6 -1 0
1 -14 10 0
8 -1 -12 0
6 10 -4 0
-4 -11 5 0
12 5 11 0
11 -5 2 0
-9 -3 7 0
-2 -1 -15 0
15 9 13 0
5 3 9 0
10 7 2 0
-12 1 -3 0
12 -8 4 0
3 6 11 0
3 -14 -6 0
5 -15 4 0
13 1 -9 0
5 7 -1 0
-12 -7 5 0
-7 12 -1 0
-9 15 -2 0
-15 3 -11 0
-3 5 6 0
-4 6 -3 0
4 5 14 0
