c Coffinhead hard-core n=15 seed=35 ratio=4.0
p cnf 15 60
-8 4 2 0
1 2 -10 0
-11 -15 1 0
10 12 -14 0
9 -15 -13 0
-1 9 -4 0
-6 -15 8 0
-1 12 2 0
-8 -12 4 0
6 -12 -13 0
7 6 -14 0
12 -15 -9 0
-11 -4 -9 0
-10 8 -6 0
-10 -15 6 0
10 -2 4 0
2 -1 8 0
-14 5 -4 0
-9 7 3 0
-4 12 8 0
-6 -5 -10 0
3 2 1 0
-3 -5 -1 0
4 -13 -2 0
7 -11 -15 0
-8 11 -4 0
-2 -10 6 0
8 13 -3 0
1 7 -5 0
2 11 9 0
12 13 7 0
12 13 10 0
-1 -6 2 0
-12 -7 -15 0
-9 -7 10 0
2 6 7 0
14 13 6 0
-1 -8 -11 0
-3 -6 9 0
-9 11 -4 0
-3 -5 -11 0
15 -11 1 0
-8 1 15 0
-6 1 -10 0
8 4 -1 0
-11 15 3 0
-12 11 6 0
-13 3 8 0
12 6 5 0
12 -11 -7 0
-10 7 8 0
14 -7 4 0
6 -11 3 0
-10 12 2 0
-11 -3 -1 0
-2 -9 12 0
1 9 12 0
8 5 -15 0
-4 10 6 0
6 -2 9 0
