c Coffinhead hard-core n=15 seed=163 ratio=4.0
p cnf 15 60
-8 5 3 0
9 -2 15 0
3 -7 -12 0
1 10 -11 0
-6 10 2 0
10 -1 6 0
3 4 -6 0
-1 6 5 0
13 -6 4 0
-10 12 11 0
-4 14 -12 0
3 -14 -15 0
4 11 -1 0
13 -2 11 0
-13 12 1 0
7 -12 2 0
2 6 -14 0
3 10 13 0
4 -2 -12 0
-7 5 6 0
-12 15 -6 0
-14 3 -11 0
-10 -11 -7 0
2 -9 -1 0
6 -4 3 0
2 6 -8 0
9 6 11 0
8 6 12 0
-15 5 -10 0
-6 1 -2 0
-1 -14 -3 0
12 1 -11 0
7 13 -12 0
10 -12 -1 0
-15 5 -11 0
12 -9 11 0
-11 -12 -9 0
-7 -8 -10 0
-2 7 9 0
8 -2 13 0
-3 -5 7 0
14 2 -11 0
-11 -4 -13 0
12 8 4 0
-1 -13 -15 0
-6 10 15 0
4 -12 -2 0
-15 -12 8 0
14 -4 8 0
-14 13 15 0
-1 -15 -7 0
-9 -2 -4 0
-7 -13 -4 0
-14 -6 7 0
15 -8 3 0
11 -2 8 0
-4 12 10 0
13 5 6 0
-10 1 -8 0
-7 2 -9 0
