c Coffinhead hard-core n=15 seed=39 ratio=4.0
p cnf 15 60
-2 3 -8 0
-8 3 -12 0
-12 13 2 0
-3 11 -15 0
-13 2 -14 0
12 6 -3 0
4 12 -15 0
-2 15 14 0
-13 7 1 0
7 -10 -11 0
-9 -3 -4 0
-5 6 -1 0
-2 5 3 0
-15 2 -13 0
12 -11 -13 0
7 8 15 0
6 -1 -12 0
6 -13 14 0
-2 -6 13 0
-11 1 14 0
-2 -3 -1 0
10 11 12 0
1 8 13 0
11 3 -13 0
15 12 -5 0
8 -7 -14 0
12 -3 1 0
3 -6 7 0
14 15 7 0
-11 5 13 0
-4 15 5 0
3 13 -10 0
1 8 -4 0
8 -4 -5 0
1 7 -9 0
6 8 5 0
8 -7 5 0
2 10 14 0
11 10 1 0
15 -6 -12 0
-1 -11 13 0
1 -5 2 0
14 9 -6 0
-15 11 12 0
4 6 -3 0
12 -13 4 0
-11 12 -13 0
-11 -5 -9 0
-14 7 4 0
-4 9 -6 0
-7 -10 13 0
2 -10 13 0
14 13 11 0
7 -15 -3 0
-15 1 -12 0
-6 -4 -11 0
-3 -15 13 0
-11 12 10 0
-11 -5 1 0
10 -2 -7 0
