c Coffinhead hard-core n=15 seed=84 ratio=4.0
p cnf 15 60
-9 1 -14 0
8 -1 -10 0
14 -9 12 0
11 2 -7 0
-5 10 15 0
14 11 -15 0
-7 5 12 0
12 -10 -6 0
-5 11 10 0
-14 2 10 0
2 -15 -3 0
9 2 -3 0
15 -4 -14 0
-2 7 -4 0
15 -2 -9 0
2 -13 -10 0
14 -4 -5 0
-5 12 -13 0
3 8 -2 0
-10 -5 -3 0
-12 14 -3 0
15 14 -3 0
8 -1 12 0
5 -1 -9 0
-12 -13 7 0
7 -10 15 0
-4 6 -7 0
-12 10 -7 0
-4 -2 -5 0
7 -5 -10 0
9 -11 6 0
-3 -14 -9 0
-12 14 9 0
-4 12 -10 0
-12 13 6 0
-10 13 -6 0
-11 2 -10 0
7 5 1 0
-7 -11 -8 0
5 -7 9 0
15 -3 -2 0
3 -14 -6 0
11 9 -4 0
14 -1 15 0
13 -7 5 0
-5 8 9 0
-6 2 -10 0
-14 6 -4 0
-3 15 12 0
4 -13 1 0
-7 -2 4 0
2 10 3 0
13 10 9 0
6 10 1 0
-1 -3 14 0
-15 -12 -1 0
-1 5 9 0
-9 -2 -1 0
1 12 14 0
-3 14 6 0
