c Coffinhead hard-core n=15 seed=57 ratio=4.0
p cnf 15 60
9 -10 -15 0
10 -9 8 0
11 2 -10 0
7 -9 15 0
3 -1 12 0
10 -2 7 0
12 -11 -4 0
-10 -12 8 0
-10 6 -3 0
11 -3 -12 0
3 -15 -9 0
5 3 -12 0
-10 -15 1 0
-15 7 3 0
5 3 2 0
13 -6 12 0
-5 10 9 0
13 -4 -1 0
10 2 12 0
-7 -5 -1 0
-4 -1 -2 0
6 -7 -2 0
15 1 2 0
-2 -14 -5 0
8 -10 15 0
5 -3 9 0
-8 -1 12 0
-8 -9 -11 0
12 5 -4 0
-13 15 -4 0
-15 -10 -2 0
-13 9 14 0
-11 4 -7 0
12 6 -13 0
7 4 10 0
15 -14 -7 0
12 8 9 0
-13 11 15 0
-5 -11 12 0
-6 -14 -13 0
14 -7 -11 0
-11 -15 -2 0
9 15 -5 0
-5 4 -7 0
6 -7 15 0
4 -8 3 0
-9 -2 13 0
11 14 15 0
-3 1 11 0
-9 -4 -3 0
15 -7 -2 0
12 -2 -5 0
9 -11 12 0
7 3 -12 0
-6 -8 1 0
-12 2 -5 0
-8 12 -7 0
-3 9 -14 0
5 11 12 0
-15 -5 6 0
