c Coffinhead hard-core n=15 seed=45 ratio=4.0
p cnf 15 60
1 2 -15 0
-15 -6 -8 0
-8 10 7 0
9 -4 -2 0
7 8 -10 0
-3 5 4 0
-9 12 -8 0
-6 1 -8 0
1 -5 8 0
-11 10 9 0
9 -13 -3 0
6 10 1 0
9 -3 -13 0
8 -4 7 0
-14 -2 6 0
-5 12 7 0
-8 7 2 0
-12 11 -4 0
10 9 -8 0
15 9 11 0
7 2 -6 0
-13 -4 6 0
4 8 2 0
3 5 4 0
-12 9 5 0
-13 -4 9 0
-12 4 11 0
1 14 -11 0
14 10 -6 0
8 7 -6 0
13 -1 12 0
-4 -1 7 0
-5 13 -8 0
9 11 7 0
-13 -7 15 0
3 7 13 0
2 -12 -3 0
12 10 13 0
-4 -9 -6 0
-6 13 1 0
-1 4 -7 0
14 10 9 0
7 15 10 0
-13 -10 12 0
3 10 -6 0
-6 3 5 0
-4 -10 -3 0
3 -9 -7 0
13 11 -5 0
14 -4 2 0
14 -10 3 0
9 2 -15 0
14 -12 -2 0
-3 -11 -7 0
10 2 -4 0
14 -15 13 0
-12 13 -9 0
15 -5 -14 0
2 -12 14 0
4 -15 12 0
