c Coffinhead hard-core n=15 seed=43 ratio=4.0
p cnf 15 60
-11 15 -12 0
15 8 4 0
-8 -2 -6 0
-15 13 10 0
13 2 -4 0
4 -9 2 0
-8 -1 -2 0
2 1 -12 0
-12 -4 13 0
-13 -9 -4 0
-6 2 9 0
5 7 -9 0
-13 15 14 0
-2 13 -7 0
-15 10 -14 0
-2 -1 -6 0
5 12 9 0
-8 -13 3 0
-1 3 -7 0
15 12 6 0
-4 -12 -6 0
8 9 -14 0
-6 -2 -9 0
-1 -2 5 0
12 14 -7 0
10 11 -9 0
-5 -12 14 0
1 7 8 0
7 3 -1 0
-11 -1 -13 0
11 -1 -15 0
2 1 -6 0
10 -5 -2 0
-7 5 14 0
6 -15 -5 0
1 4 11 0
-8 -5 4 0
5 -9 -14 0
5 4 -11 0
-8 -13 15 0
-15 -12 -6 0
5 -1 -15 0
-7 -2 -1 0
11 -1 -9 0
-14 -12 -6 0
13 -3 -9 0
-5 6 -7 0
-12 9 10 0
-10 -5 -1 0
-15 -4 -9 0
-14 10 7 0
-12 -7 4 0
9 -7 5 0
4 -7 2 0
-10 7 12 0
3 -11 -7 0
-8 5 -13 0
-3 -8 -6 0
-14 -9 3 0
8 -2 -12 0
