c Coffinhead hard-core n=15 seed=191 ratio=4.0
p cnf 15 60
-9 -14 4 0
-14 -15 -13 0
10 -4 7 0
3 -6 -7 0
2 -10 9 0
-13 10 -14 0
15 -9 2 0
-15 -14 1 0
3 12 -8 0
-10 9 13 0
11 -1 12 0
-5 -10 15 0
6 -12 -13 0
14 4 -7 0
-3 -13 2 0
12 -11 -9 0
7 -5 -10 0
1 -4 6 0
8 3 14 0
15 4 -14 0
-7 13 -10 0
8 14 12 0
14 -7 2 0
-2 9 -15 0
12 2 -6 0
11 -4 -1 0
12 -7 -6 0
5 -8 14 0
-6 -10 -8 0
6 -13 8 0
11 5 10 0
-8 -15 6 0
5 -13 -15 0
-12 -7 -2 0
6 13 1 0
-13 9 -8 0
-12 7 15 0
-14 12 10 0
-5 8 9 0
10 1 -15 0
-2 1 8 0
-8 -10 -7 0
-8 -10 9 0
-3 -8 -4 0
-9 8 5 0
-6 2 3 0
7 2 -6 0
-7 -3 -5 0
11 10 -13 0
-15 -5 2 0
14 -6 -11 0
5 15 4 0
14 -7 1 0
12 -10 -8 0
-12 -11 6 0
7 -10 -9 0
4 12 9 0
-9 -14 -6 0
11 -9 10 0
-9 -15 -3 0
